*SPEF "ieee 1481-1999"
*DESIGN "sram_1rw_32_1024_wrapper"
*DATE "14:35:32 Wednesday April 29, 2026"
*VENDOR "The OpenROAD Project"
*PROGRAM "OpenROAD"
*VERSION "26Q1-990-g15af3a5c0"
*DESIGN_FLOW "NAME_SCOPE LOCAL" "PIN_CAP NONE"
*DIVIDER /
*DELIMITER :
*BUS_DELIMITER []
*T_UNIT 1 NS
*C_UNIT 1 PF
*R_UNIT 1 OHM
*L_UNIT 1 HENRY

*NAME_MAP
*3 addr[0]
*4 addr[1]
*5 addr[2]
*6 addr[3]
*7 addr[4]
*8 addr[5]
*9 addr[6]
*10 addr[7]
*11 addr[8]
*12 addr[9]
*13 clk
*14 cs
*15 rdata[0]
*16 rdata[10]
*17 rdata[11]
*18 rdata[12]
*19 rdata[13]
*20 rdata[14]
*21 rdata[15]
*22 rdata[16]
*23 rdata[17]
*24 rdata[18]
*25 rdata[19]
*26 rdata[1]
*27 rdata[20]
*28 rdata[21]
*29 rdata[22]
*30 rdata[23]
*31 rdata[24]
*32 rdata[25]
*33 rdata[26]
*34 rdata[27]
*35 rdata[28]
*36 rdata[29]
*37 rdata[2]
*38 rdata[30]
*39 rdata[31]
*40 rdata[3]
*41 rdata[4]
*42 rdata[5]
*43 rdata[6]
*44 rdata[7]
*45 rdata[8]
*46 rdata[9]
*47 wdata[0]
*48 wdata[10]
*49 wdata[11]
*50 wdata[12]
*51 wdata[13]
*52 wdata[14]
*53 wdata[15]
*54 wdata[16]
*55 wdata[17]
*56 wdata[18]
*57 wdata[19]
*58 wdata[1]
*59 wdata[20]
*60 wdata[21]
*61 wdata[22]
*62 wdata[23]
*63 wdata[24]
*64 wdata[25]
*65 wdata[26]
*66 wdata[27]
*67 wdata[28]
*68 wdata[29]
*69 wdata[2]
*70 wdata[30]
*71 wdata[31]
*72 wdata[3]
*73 wdata[4]
*74 wdata[5]
*75 wdata[6]
*76 wdata[7]
*77 wdata[8]
*78 wdata[9]
*79 we
*80 wmask[0]
*81 wmask[1]
*82 wmask[2]
*83 wmask[3]
*84 _000_
*85 _001_
*86 _002_
*87 net
*88 net1
*89 net10
*90 net100
*91 net101
*92 net102
*93 net103
*94 net104
*95 net105
*96 net106
*97 net107
*98 net108
*99 net109
*100 net11
*101 net110
*102 net111
*103 net112
*104 net113
*105 net114
*106 net115
*107 net116
*108 net117
*109 net118
*110 net119
*111 net12
*112 net120
*113 net121
*114 net122
*115 net123
*116 net124
*117 net125
*118 net126
*119 net127
*120 net128
*121 net129
*122 net13
*123 net130
*124 net131
*125 net132
*126 net133
*127 net134
*128 net135
*129 net136
*130 net137
*131 net138
*132 net139
*133 net14
*134 net140
*135 net141
*136 net142
*137 net143
*138 net144
*139 net145
*140 net146
*141 net147
*142 net148
*143 net149
*144 net15
*145 net150
*146 net151
*147 net152
*148 net153
*149 net154
*150 net155
*151 net156
*152 net157
*153 net158
*154 net159
*155 net16
*156 net17
*157 net18
*158 net19
*159 net2
*160 net20
*161 net21
*162 net22
*163 net23
*164 net24
*165 net25
*166 net26
*167 net27
*168 net28
*169 net29
*170 net3
*171 net30
*172 net31
*173 net32
*174 net33
*175 net34
*176 net35
*177 net36
*178 net37
*179 net38
*180 net39
*181 net4
*182 net40
*183 net41
*184 net42
*185 net43
*186 net44
*187 net45
*188 net46
*189 net47
*190 net48
*191 net49
*192 net5
*193 net50
*194 net51
*195 net52
*196 net53
*197 net54
*198 net55
*199 net56
*200 net57
*201 net58
*202 net59
*203 net6
*204 net60
*205 net61
*206 net62
*207 net63
*208 net64
*209 net65
*210 net66
*211 net67
*212 net68
*213 net69
*214 net7
*215 net70
*216 net71
*217 net72
*218 net73
*219 net74
*220 net75
*221 net76
*222 net77
*223 net78
*224 net79
*225 net8
*226 net80
*227 net81
*228 net82
*229 net83
*230 net84
*231 net85
*232 net86
*233 net87
*234 net88
*235 net89
*236 net9
*237 net90
*238 net91
*239 net92
*240 net93
*241 net94
*242 net95
*243 net96
*244 net97
*245 net98
*246 net99
*247 FILLER_0_0
*248 FILLER_0_1006
*249 FILLER_0_1013
*250 FILLER_0_1020
*251 FILLER_0_1027
*252 FILLER_0_1034
*253 FILLER_0_1041
*254 FILLER_0_1048
*255 FILLER_0_105
*256 FILLER_0_112
*257 FILLER_0_116
*258 FILLER_0_121
*259 FILLER_0_128
*260 FILLER_0_135
*261 FILLER_0_14
*262 FILLER_0_142
*263 FILLER_0_146
*264 FILLER_0_151
*265 FILLER_0_158
*266 FILLER_0_160
*267 FILLER_0_165
*268 FILLER_0_173
*269 FILLER_0_180
*270 FILLER_0_184
*271 FILLER_0_189
*272 FILLER_0_197
*273 FILLER_0_204
*274 FILLER_0_208
*275 FILLER_0_21
*276 FILLER_0_213
*277 FILLER_0_221
*278 FILLER_0_228
*279 FILLER_0_230
*280 FILLER_0_235
*281 FILLER_0_243
*282 FILLER_0_250
*283 FILLER_0_254
*284 FILLER_0_259
*285 FILLER_0_267
*286 FILLER_0_274
*287 FILLER_0_278
*288 FILLER_0_28
*289 FILLER_0_283
*290 FILLER_0_291
*291 FILLER_0_298
*292 FILLER_0_307
*293 FILLER_0_315
*294 FILLER_0_322
*295 FILLER_0_324
*296 FILLER_0_329
*297 FILLER_0_337
*298 FILLER_0_344
*299 FILLER_0_348
*300 FILLER_0_35
*301 FILLER_0_353
*302 FILLER_0_361
*303 FILLER_0_368
*304 FILLER_0_372
*305 FILLER_0_377
*306 FILLER_0_385
*307 FILLER_0_392
*308 FILLER_0_394
*309 FILLER_0_399
*310 FILLER_0_407
*311 FILLER_0_414
*312 FILLER_0_418
*313 FILLER_0_42
*314 FILLER_0_423
*315 FILLER_0_431
*316 FILLER_0_438
*317 FILLER_0_442
*318 FILLER_0_447
*319 FILLER_0_455
*320 FILLER_0_462
*321 FILLER_0_464
*322 FILLER_0_469
*323 FILLER_0_476
*324 FILLER_0_483
*325 FILLER_0_49
*326 FILLER_0_490
*327 FILLER_0_499
*328 FILLER_0_506
*329 FILLER_0_523
*330 FILLER_0_543
*331 FILLER_0_549
*332 FILLER_0_553
*333 FILLER_0_559
*334 FILLER_0_56
*335 FILLER_0_566
*336 FILLER_0_573
*337 FILLER_0_580
*338 FILLER_0_595
*339 FILLER_0_599
*340 FILLER_0_605
*341 FILLER_0_613
*342 FILLER_0_620
*343 FILLER_0_624
*344 FILLER_0_629
*345 FILLER_0_63
*346 FILLER_0_637
*347 FILLER_0_644
*348 FILLER_0_648
*349 FILLER_0_653
*350 FILLER_0_661
*351 FILLER_0_668
*352 FILLER_0_672
*353 FILLER_0_677
*354 FILLER_0_685
*355 FILLER_0_692
*356 FILLER_0_694
*357 FILLER_0_699
*358 FILLER_0_7
*359 FILLER_0_70
*360 FILLER_0_707
*361 FILLER_0_714
*362 FILLER_0_718
*363 FILLER_0_723
*364 FILLER_0_731
*365 FILLER_0_738
*366 FILLER_0_742
*367 FILLER_0_747
*368 FILLER_0_755
*369 FILLER_0_762
*370 FILLER_0_769
*371 FILLER_0_77
*372 FILLER_0_776
*373 FILLER_0_783
*374 FILLER_0_790
*375 FILLER_0_792
*376 FILLER_0_809
*377 FILLER_0_817
*378 FILLER_0_825
*379 FILLER_0_832
*380 FILLER_0_834
*381 FILLER_0_839
*382 FILLER_0_84
*383 FILLER_0_843
*384 FILLER_0_849
*385 FILLER_0_856
*386 FILLER_0_858
*387 FILLER_0_863
*388 FILLER_0_871
*389 FILLER_0_878
*390 FILLER_0_882
*391 FILLER_0_887
*392 FILLER_0_895
*393 FILLER_0_902
*394 FILLER_0_906
*395 FILLER_0_91
*396 FILLER_0_911
*397 FILLER_0_919
*398 FILLER_0_926
*399 FILLER_0_928
*400 FILLER_0_933
*401 FILLER_0_941
*402 FILLER_0_948
*403 FILLER_0_952
*404 FILLER_0_957
*405 FILLER_0_964
*406 FILLER_0_971
*407 FILLER_0_978
*408 FILLER_0_98
*409 FILLER_0_985
*410 FILLER_0_992
*411 FILLER_0_999
*412 FILLER_100_0
*413 FILLER_100_1001
*414 FILLER_100_1008
*415 FILLER_100_1015
*416 FILLER_100_1022
*417 FILLER_100_1029
*418 FILLER_100_1036
*419 FILLER_100_1043
*420 FILLER_100_105
*421 FILLER_100_1050
*422 FILLER_100_112
*423 FILLER_100_119
*424 FILLER_100_126
*425 FILLER_100_133
*426 FILLER_100_14
*427 FILLER_100_140
*428 FILLER_100_147
*429 FILLER_100_154
*430 FILLER_100_161
*431 FILLER_100_168
*432 FILLER_100_175
*433 FILLER_100_182
*434 FILLER_100_189
*435 FILLER_100_196
*436 FILLER_100_203
*437 FILLER_100_21
*438 FILLER_100_210
*439 FILLER_100_217
*440 FILLER_100_224
*441 FILLER_100_231
*442 FILLER_100_238
*443 FILLER_100_245
*444 FILLER_100_252
*445 FILLER_100_259
*446 FILLER_100_266
*447 FILLER_100_273
*448 FILLER_100_28
*449 FILLER_100_280
*450 FILLER_100_287
*451 FILLER_100_294
*452 FILLER_100_301
*453 FILLER_100_308
*454 FILLER_100_315
*455 FILLER_100_322
*456 FILLER_100_329
*457 FILLER_100_336
*458 FILLER_100_343
*459 FILLER_100_35
*460 FILLER_100_350
*461 FILLER_100_357
*462 FILLER_100_364
*463 FILLER_100_371
*464 FILLER_100_378
*465 FILLER_100_385
*466 FILLER_100_392
*467 FILLER_100_399
*468 FILLER_100_406
*469 FILLER_100_413
*470 FILLER_100_42
*471 FILLER_100_420
*472 FILLER_100_427
*473 FILLER_100_434
*474 FILLER_100_441
*475 FILLER_100_448
*476 FILLER_100_455
*477 FILLER_100_462
*478 FILLER_100_469
*479 FILLER_100_476
*480 FILLER_100_483
*481 FILLER_100_49
*482 FILLER_100_490
*483 FILLER_100_497
*484 FILLER_100_504
*485 FILLER_100_511
*486 FILLER_100_518
*487 FILLER_100_525
*488 FILLER_100_532
*489 FILLER_100_539
*490 FILLER_100_546
*491 FILLER_100_553
*492 FILLER_100_56
*493 FILLER_100_560
*494 FILLER_100_567
*495 FILLER_100_574
*496 FILLER_100_581
*497 FILLER_100_588
*498 FILLER_100_595
*499 FILLER_100_602
*500 FILLER_100_609
*501 FILLER_100_616
*502 FILLER_100_623
*503 FILLER_100_63
*504 FILLER_100_630
*505 FILLER_100_637
*506 FILLER_100_644
*507 FILLER_100_651
*508 FILLER_100_658
*509 FILLER_100_665
*510 FILLER_100_672
*511 FILLER_100_679
*512 FILLER_100_686
*513 FILLER_100_693
*514 FILLER_100_7
*515 FILLER_100_70
*516 FILLER_100_700
*517 FILLER_100_707
*518 FILLER_100_714
*519 FILLER_100_721
*520 FILLER_100_728
*521 FILLER_100_735
*522 FILLER_100_742
*523 FILLER_100_749
*524 FILLER_100_756
*525 FILLER_100_763
*526 FILLER_100_77
*527 FILLER_100_770
*528 FILLER_100_777
*529 FILLER_100_784
*530 FILLER_100_791
*531 FILLER_100_798
*532 FILLER_100_805
*533 FILLER_100_812
*534 FILLER_100_819
*535 FILLER_100_826
*536 FILLER_100_833
*537 FILLER_100_84
*538 FILLER_100_840
*539 FILLER_100_847
*540 FILLER_100_854
*541 FILLER_100_861
*542 FILLER_100_868
*543 FILLER_100_875
*544 FILLER_100_882
*545 FILLER_100_889
*546 FILLER_100_896
*547 FILLER_100_903
*548 FILLER_100_91
*549 FILLER_100_910
*550 FILLER_100_917
*551 FILLER_100_924
*552 FILLER_100_931
*553 FILLER_100_938
*554 FILLER_100_945
*555 FILLER_100_952
*556 FILLER_100_959
*557 FILLER_100_966
*558 FILLER_100_973
*559 FILLER_100_98
*560 FILLER_100_980
*561 FILLER_100_987
*562 FILLER_100_994
*563 FILLER_101_0
*564 FILLER_101_1001
*565 FILLER_101_1008
*566 FILLER_101_1015
*567 FILLER_101_1022
*568 FILLER_101_1029
*569 FILLER_101_1036
*570 FILLER_101_1043
*571 FILLER_101_105
*572 FILLER_101_1050
*573 FILLER_101_112
*574 FILLER_101_119
*575 FILLER_101_126
*576 FILLER_101_133
*577 FILLER_101_14
*578 FILLER_101_140
*579 FILLER_101_147
*580 FILLER_101_154
*581 FILLER_101_161
*582 FILLER_101_168
*583 FILLER_101_175
*584 FILLER_101_182
*585 FILLER_101_189
*586 FILLER_101_196
*587 FILLER_101_203
*588 FILLER_101_21
*589 FILLER_101_210
*590 FILLER_101_217
*591 FILLER_101_224
*592 FILLER_101_231
*593 FILLER_101_238
*594 FILLER_101_245
*595 FILLER_101_252
*596 FILLER_101_259
*597 FILLER_101_266
*598 FILLER_101_273
*599 FILLER_101_28
*600 FILLER_101_280
*601 FILLER_101_287
*602 FILLER_101_294
*603 FILLER_101_301
*604 FILLER_101_308
*605 FILLER_101_315
*606 FILLER_101_322
*607 FILLER_101_329
*608 FILLER_101_336
*609 FILLER_101_343
*610 FILLER_101_35
*611 FILLER_101_350
*612 FILLER_101_357
*613 FILLER_101_364
*614 FILLER_101_371
*615 FILLER_101_378
*616 FILLER_101_385
*617 FILLER_101_392
*618 FILLER_101_399
*619 FILLER_101_406
*620 FILLER_101_413
*621 FILLER_101_42
*622 FILLER_101_420
*623 FILLER_101_427
*624 FILLER_101_434
*625 FILLER_101_441
*626 FILLER_101_448
*627 FILLER_101_455
*628 FILLER_101_462
*629 FILLER_101_469
*630 FILLER_101_476
*631 FILLER_101_483
*632 FILLER_101_49
*633 FILLER_101_490
*634 FILLER_101_497
*635 FILLER_101_504
*636 FILLER_101_511
*637 FILLER_101_518
*638 FILLER_101_525
*639 FILLER_101_532
*640 FILLER_101_539
*641 FILLER_101_546
*642 FILLER_101_553
*643 FILLER_101_56
*644 FILLER_101_560
*645 FILLER_101_567
*646 FILLER_101_574
*647 FILLER_101_581
*648 FILLER_101_588
*649 FILLER_101_595
*650 FILLER_101_602
*651 FILLER_101_609
*652 FILLER_101_616
*653 FILLER_101_623
*654 FILLER_101_63
*655 FILLER_101_630
*656 FILLER_101_637
*657 FILLER_101_644
*658 FILLER_101_651
*659 FILLER_101_658
*660 FILLER_101_665
*661 FILLER_101_672
*662 FILLER_101_679
*663 FILLER_101_686
*664 FILLER_101_693
*665 FILLER_101_7
*666 FILLER_101_70
*667 FILLER_101_700
*668 FILLER_101_707
*669 FILLER_101_714
*670 FILLER_101_721
*671 FILLER_101_728
*672 FILLER_101_735
*673 FILLER_101_742
*674 FILLER_101_749
*675 FILLER_101_756
*676 FILLER_101_763
*677 FILLER_101_77
*678 FILLER_101_770
*679 FILLER_101_777
*680 FILLER_101_784
*681 FILLER_101_791
*682 FILLER_101_798
*683 FILLER_101_805
*684 FILLER_101_812
*685 FILLER_101_819
*686 FILLER_101_826
*687 FILLER_101_833
*688 FILLER_101_84
*689 FILLER_101_840
*690 FILLER_101_847
*691 FILLER_101_854
*692 FILLER_101_861
*693 FILLER_101_868
*694 FILLER_101_875
*695 FILLER_101_882
*696 FILLER_101_889
*697 FILLER_101_896
*698 FILLER_101_903
*699 FILLER_101_91
*700 FILLER_101_910
*701 FILLER_101_917
*702 FILLER_101_924
*703 FILLER_101_931
*704 FILLER_101_938
*705 FILLER_101_945
*706 FILLER_101_952
*707 FILLER_101_959
*708 FILLER_101_966
*709 FILLER_101_973
*710 FILLER_101_98
*711 FILLER_101_980
*712 FILLER_101_987
*713 FILLER_101_994
*714 FILLER_102_0
*715 FILLER_102_1001
*716 FILLER_102_1008
*717 FILLER_102_1015
*718 FILLER_102_1022
*719 FILLER_102_1029
*720 FILLER_102_1036
*721 FILLER_102_1043
*722 FILLER_102_105
*723 FILLER_102_1050
*724 FILLER_102_112
*725 FILLER_102_119
*726 FILLER_102_126
*727 FILLER_102_133
*728 FILLER_102_14
*729 FILLER_102_140
*730 FILLER_102_147
*731 FILLER_102_154
*732 FILLER_102_161
*733 FILLER_102_168
*734 FILLER_102_175
*735 FILLER_102_182
*736 FILLER_102_189
*737 FILLER_102_196
*738 FILLER_102_203
*739 FILLER_102_21
*740 FILLER_102_210
*741 FILLER_102_217
*742 FILLER_102_224
*743 FILLER_102_231
*744 FILLER_102_238
*745 FILLER_102_245
*746 FILLER_102_252
*747 FILLER_102_259
*748 FILLER_102_266
*749 FILLER_102_273
*750 FILLER_102_28
*751 FILLER_102_280
*752 FILLER_102_287
*753 FILLER_102_294
*754 FILLER_102_301
*755 FILLER_102_308
*756 FILLER_102_315
*757 FILLER_102_322
*758 FILLER_102_329
*759 FILLER_102_336
*760 FILLER_102_343
*761 FILLER_102_35
*762 FILLER_102_350
*763 FILLER_102_357
*764 FILLER_102_364
*765 FILLER_102_371
*766 FILLER_102_378
*767 FILLER_102_385
*768 FILLER_102_392
*769 FILLER_102_399
*770 FILLER_102_406
*771 FILLER_102_413
*772 FILLER_102_42
*773 FILLER_102_420
*774 FILLER_102_427
*775 FILLER_102_434
*776 FILLER_102_441
*777 FILLER_102_448
*778 FILLER_102_455
*779 FILLER_102_462
*780 FILLER_102_469
*781 FILLER_102_476
*782 FILLER_102_483
*783 FILLER_102_49
*784 FILLER_102_490
*785 FILLER_102_497
*786 FILLER_102_504
*787 FILLER_102_511
*788 FILLER_102_518
*789 FILLER_102_525
*790 FILLER_102_532
*791 FILLER_102_539
*792 FILLER_102_546
*793 FILLER_102_553
*794 FILLER_102_56
*795 FILLER_102_560
*796 FILLER_102_567
*797 FILLER_102_574
*798 FILLER_102_581
*799 FILLER_102_588
*800 FILLER_102_595
*801 FILLER_102_602
*802 FILLER_102_609
*803 FILLER_102_616
*804 FILLER_102_623
*805 FILLER_102_63
*806 FILLER_102_630
*807 FILLER_102_637
*808 FILLER_102_644
*809 FILLER_102_651
*810 FILLER_102_658
*811 FILLER_102_665
*812 FILLER_102_672
*813 FILLER_102_679
*814 FILLER_102_686
*815 FILLER_102_693
*816 FILLER_102_7
*817 FILLER_102_70
*818 FILLER_102_700
*819 FILLER_102_707
*820 FILLER_102_714
*821 FILLER_102_721
*822 FILLER_102_728
*823 FILLER_102_735
*824 FILLER_102_742
*825 FILLER_102_749
*826 FILLER_102_756
*827 FILLER_102_763
*828 FILLER_102_77
*829 FILLER_102_770
*830 FILLER_102_777
*831 FILLER_102_784
*832 FILLER_102_791
*833 FILLER_102_798
*834 FILLER_102_805
*835 FILLER_102_812
*836 FILLER_102_819
*837 FILLER_102_826
*838 FILLER_102_833
*839 FILLER_102_84
*840 FILLER_102_840
*841 FILLER_102_847
*842 FILLER_102_854
*843 FILLER_102_861
*844 FILLER_102_868
*845 FILLER_102_875
*846 FILLER_102_882
*847 FILLER_102_889
*848 FILLER_102_896
*849 FILLER_102_903
*850 FILLER_102_91
*851 FILLER_102_910
*852 FILLER_102_917
*853 FILLER_102_924
*854 FILLER_102_931
*855 FILLER_102_938
*856 FILLER_102_945
*857 FILLER_102_952
*858 FILLER_102_959
*859 FILLER_102_966
*860 FILLER_102_973
*861 FILLER_102_98
*862 FILLER_102_980
*863 FILLER_102_987
*864 FILLER_102_994
*865 FILLER_103_0
*866 FILLER_103_1001
*867 FILLER_103_1008
*868 FILLER_103_1015
*869 FILLER_103_1022
*870 FILLER_103_1029
*871 FILLER_103_1036
*872 FILLER_103_1043
*873 FILLER_103_105
*874 FILLER_103_1050
*875 FILLER_103_112
*876 FILLER_103_119
*877 FILLER_103_126
*878 FILLER_103_133
*879 FILLER_103_14
*880 FILLER_103_140
*881 FILLER_103_147
*882 FILLER_103_154
*883 FILLER_103_161
*884 FILLER_103_168
*885 FILLER_103_175
*886 FILLER_103_182
*887 FILLER_103_189
*888 FILLER_103_196
*889 FILLER_103_203
*890 FILLER_103_21
*891 FILLER_103_210
*892 FILLER_103_217
*893 FILLER_103_224
*894 FILLER_103_231
*895 FILLER_103_238
*896 FILLER_103_245
*897 FILLER_103_252
*898 FILLER_103_259
*899 FILLER_103_266
*900 FILLER_103_273
*901 FILLER_103_28
*902 FILLER_103_280
*903 FILLER_103_287
*904 FILLER_103_294
*905 FILLER_103_301
*906 FILLER_103_308
*907 FILLER_103_315
*908 FILLER_103_322
*909 FILLER_103_329
*910 FILLER_103_336
*911 FILLER_103_343
*912 FILLER_103_35
*913 FILLER_103_350
*914 FILLER_103_357
*915 FILLER_103_364
*916 FILLER_103_371
*917 FILLER_103_378
*918 FILLER_103_385
*919 FILLER_103_392
*920 FILLER_103_399
*921 FILLER_103_406
*922 FILLER_103_413
*923 FILLER_103_42
*924 FILLER_103_420
*925 FILLER_103_427
*926 FILLER_103_434
*927 FILLER_103_441
*928 FILLER_103_448
*929 FILLER_103_455
*930 FILLER_103_462
*931 FILLER_103_469
*932 FILLER_103_476
*933 FILLER_103_483
*934 FILLER_103_49
*935 FILLER_103_490
*936 FILLER_103_497
*937 FILLER_103_504
*938 FILLER_103_511
*939 FILLER_103_518
*940 FILLER_103_525
*941 FILLER_103_532
*942 FILLER_103_539
*943 FILLER_103_546
*944 FILLER_103_553
*945 FILLER_103_56
*946 FILLER_103_560
*947 FILLER_103_567
*948 FILLER_103_574
*949 FILLER_103_581
*950 FILLER_103_588
*951 FILLER_103_595
*952 FILLER_103_602
*953 FILLER_103_609
*954 FILLER_103_616
*955 FILLER_103_623
*956 FILLER_103_63
*957 FILLER_103_630
*958 FILLER_103_637
*959 FILLER_103_644
*960 FILLER_103_651
*961 FILLER_103_658
*962 FILLER_103_665
*963 FILLER_103_672
*964 FILLER_103_679
*965 FILLER_103_686
*966 FILLER_103_693
*967 FILLER_103_7
*968 FILLER_103_70
*969 FILLER_103_700
*970 FILLER_103_707
*971 FILLER_103_714
*972 FILLER_103_721
*973 FILLER_103_728
*974 FILLER_103_735
*975 FILLER_103_742
*976 FILLER_103_749
*977 FILLER_103_756
*978 FILLER_103_763
*979 FILLER_103_77
*980 FILLER_103_770
*981 FILLER_103_777
*982 FILLER_103_784
*983 FILLER_103_791
*984 FILLER_103_798
*985 FILLER_103_805
*986 FILLER_103_812
*987 FILLER_103_819
*988 FILLER_103_826
*989 FILLER_103_833
*990 FILLER_103_84
*991 FILLER_103_840
*992 FILLER_103_847
*993 FILLER_103_854
*994 FILLER_103_861
*995 FILLER_103_868
*996 FILLER_103_875
*997 FILLER_103_882
*998 FILLER_103_889
*999 FILLER_103_896
*1000 FILLER_103_903
*1001 FILLER_103_91
*1002 FILLER_103_910
*1003 FILLER_103_917
*1004 FILLER_103_924
*1005 FILLER_103_931
*1006 FILLER_103_938
*1007 FILLER_103_945
*1008 FILLER_103_952
*1009 FILLER_103_959
*1010 FILLER_103_966
*1011 FILLER_103_973
*1012 FILLER_103_98
*1013 FILLER_103_980
*1014 FILLER_103_987
*1015 FILLER_103_994
*1016 FILLER_104_0
*1017 FILLER_104_1001
*1018 FILLER_104_1008
*1019 FILLER_104_1015
*1020 FILLER_104_1022
*1021 FILLER_104_1029
*1022 FILLER_104_1036
*1023 FILLER_104_1043
*1024 FILLER_104_105
*1025 FILLER_104_1050
*1026 FILLER_104_112
*1027 FILLER_104_119
*1028 FILLER_104_126
*1029 FILLER_104_133
*1030 FILLER_104_14
*1031 FILLER_104_140
*1032 FILLER_104_147
*1033 FILLER_104_154
*1034 FILLER_104_161
*1035 FILLER_104_168
*1036 FILLER_104_175
*1037 FILLER_104_182
*1038 FILLER_104_189
*1039 FILLER_104_196
*1040 FILLER_104_203
*1041 FILLER_104_21
*1042 FILLER_104_210
*1043 FILLER_104_217
*1044 FILLER_104_224
*1045 FILLER_104_231
*1046 FILLER_104_238
*1047 FILLER_104_245
*1048 FILLER_104_252
*1049 FILLER_104_259
*1050 FILLER_104_266
*1051 FILLER_104_273
*1052 FILLER_104_28
*1053 FILLER_104_280
*1054 FILLER_104_287
*1055 FILLER_104_294
*1056 FILLER_104_301
*1057 FILLER_104_308
*1058 FILLER_104_315
*1059 FILLER_104_322
*1060 FILLER_104_329
*1061 FILLER_104_336
*1062 FILLER_104_343
*1063 FILLER_104_35
*1064 FILLER_104_350
*1065 FILLER_104_357
*1066 FILLER_104_364
*1067 FILLER_104_371
*1068 FILLER_104_378
*1069 FILLER_104_385
*1070 FILLER_104_392
*1071 FILLER_104_399
*1072 FILLER_104_406
*1073 FILLER_104_413
*1074 FILLER_104_42
*1075 FILLER_104_420
*1076 FILLER_104_427
*1077 FILLER_104_434
*1078 FILLER_104_441
*1079 FILLER_104_448
*1080 FILLER_104_455
*1081 FILLER_104_462
*1082 FILLER_104_469
*1083 FILLER_104_476
*1084 FILLER_104_483
*1085 FILLER_104_49
*1086 FILLER_104_490
*1087 FILLER_104_497
*1088 FILLER_104_504
*1089 FILLER_104_511
*1090 FILLER_104_518
*1091 FILLER_104_525
*1092 FILLER_104_532
*1093 FILLER_104_539
*1094 FILLER_104_546
*1095 FILLER_104_553
*1096 FILLER_104_56
*1097 FILLER_104_560
*1098 FILLER_104_567
*1099 FILLER_104_574
*1100 FILLER_104_581
*1101 FILLER_104_588
*1102 FILLER_104_595
*1103 FILLER_104_602
*1104 FILLER_104_609
*1105 FILLER_104_616
*1106 FILLER_104_623
*1107 FILLER_104_63
*1108 FILLER_104_630
*1109 FILLER_104_637
*1110 FILLER_104_644
*1111 FILLER_104_651
*1112 FILLER_104_658
*1113 FILLER_104_665
*1114 FILLER_104_672
*1115 FILLER_104_679
*1116 FILLER_104_686
*1117 FILLER_104_693
*1118 FILLER_104_7
*1119 FILLER_104_70
*1120 FILLER_104_700
*1121 FILLER_104_707
*1122 FILLER_104_714
*1123 FILLER_104_721
*1124 FILLER_104_728
*1125 FILLER_104_735
*1126 FILLER_104_742
*1127 FILLER_104_749
*1128 FILLER_104_756
*1129 FILLER_104_763
*1130 FILLER_104_77
*1131 FILLER_104_770
*1132 FILLER_104_777
*1133 FILLER_104_784
*1134 FILLER_104_791
*1135 FILLER_104_798
*1136 FILLER_104_805
*1137 FILLER_104_812
*1138 FILLER_104_819
*1139 FILLER_104_826
*1140 FILLER_104_833
*1141 FILLER_104_84
*1142 FILLER_104_840
*1143 FILLER_104_847
*1144 FILLER_104_854
*1145 FILLER_104_861
*1146 FILLER_104_868
*1147 FILLER_104_875
*1148 FILLER_104_882
*1149 FILLER_104_889
*1150 FILLER_104_896
*1151 FILLER_104_903
*1152 FILLER_104_91
*1153 FILLER_104_910
*1154 FILLER_104_917
*1155 FILLER_104_924
*1156 FILLER_104_931
*1157 FILLER_104_938
*1158 FILLER_104_945
*1159 FILLER_104_952
*1160 FILLER_104_959
*1161 FILLER_104_966
*1162 FILLER_104_973
*1163 FILLER_104_98
*1164 FILLER_104_980
*1165 FILLER_104_987
*1166 FILLER_104_994
*1167 FILLER_105_0
*1168 FILLER_105_1001
*1169 FILLER_105_1008
*1170 FILLER_105_1015
*1171 FILLER_105_1022
*1172 FILLER_105_1029
*1173 FILLER_105_1036
*1174 FILLER_105_1043
*1175 FILLER_105_105
*1176 FILLER_105_1050
*1177 FILLER_105_112
*1178 FILLER_105_119
*1179 FILLER_105_126
*1180 FILLER_105_133
*1181 FILLER_105_14
*1182 FILLER_105_140
*1183 FILLER_105_147
*1184 FILLER_105_154
*1185 FILLER_105_161
*1186 FILLER_105_168
*1187 FILLER_105_175
*1188 FILLER_105_182
*1189 FILLER_105_189
*1190 FILLER_105_196
*1191 FILLER_105_203
*1192 FILLER_105_21
*1193 FILLER_105_210
*1194 FILLER_105_217
*1195 FILLER_105_224
*1196 FILLER_105_231
*1197 FILLER_105_238
*1198 FILLER_105_245
*1199 FILLER_105_252
*1200 FILLER_105_259
*1201 FILLER_105_266
*1202 FILLER_105_273
*1203 FILLER_105_28
*1204 FILLER_105_280
*1205 FILLER_105_287
*1206 FILLER_105_294
*1207 FILLER_105_301
*1208 FILLER_105_308
*1209 FILLER_105_315
*1210 FILLER_105_322
*1211 FILLER_105_329
*1212 FILLER_105_336
*1213 FILLER_105_343
*1214 FILLER_105_35
*1215 FILLER_105_350
*1216 FILLER_105_357
*1217 FILLER_105_364
*1218 FILLER_105_371
*1219 FILLER_105_378
*1220 FILLER_105_385
*1221 FILLER_105_392
*1222 FILLER_105_399
*1223 FILLER_105_406
*1224 FILLER_105_413
*1225 FILLER_105_42
*1226 FILLER_105_420
*1227 FILLER_105_427
*1228 FILLER_105_434
*1229 FILLER_105_441
*1230 FILLER_105_448
*1231 FILLER_105_455
*1232 FILLER_105_462
*1233 FILLER_105_469
*1234 FILLER_105_476
*1235 FILLER_105_483
*1236 FILLER_105_49
*1237 FILLER_105_490
*1238 FILLER_105_497
*1239 FILLER_105_504
*1240 FILLER_105_511
*1241 FILLER_105_518
*1242 FILLER_105_525
*1243 FILLER_105_532
*1244 FILLER_105_539
*1245 FILLER_105_546
*1246 FILLER_105_553
*1247 FILLER_105_56
*1248 FILLER_105_560
*1249 FILLER_105_567
*1250 FILLER_105_574
*1251 FILLER_105_581
*1252 FILLER_105_588
*1253 FILLER_105_595
*1254 FILLER_105_602
*1255 FILLER_105_609
*1256 FILLER_105_616
*1257 FILLER_105_623
*1258 FILLER_105_63
*1259 FILLER_105_630
*1260 FILLER_105_637
*1261 FILLER_105_644
*1262 FILLER_105_651
*1263 FILLER_105_658
*1264 FILLER_105_665
*1265 FILLER_105_672
*1266 FILLER_105_679
*1267 FILLER_105_686
*1268 FILLER_105_693
*1269 FILLER_105_7
*1270 FILLER_105_70
*1271 FILLER_105_700
*1272 FILLER_105_707
*1273 FILLER_105_714
*1274 FILLER_105_721
*1275 FILLER_105_728
*1276 FILLER_105_735
*1277 FILLER_105_742
*1278 FILLER_105_749
*1279 FILLER_105_756
*1280 FILLER_105_763
*1281 FILLER_105_77
*1282 FILLER_105_770
*1283 FILLER_105_777
*1284 FILLER_105_784
*1285 FILLER_105_791
*1286 FILLER_105_798
*1287 FILLER_105_805
*1288 FILLER_105_812
*1289 FILLER_105_819
*1290 FILLER_105_826
*1291 FILLER_105_833
*1292 FILLER_105_84
*1293 FILLER_105_840
*1294 FILLER_105_847
*1295 FILLER_105_854
*1296 FILLER_105_861
*1297 FILLER_105_868
*1298 FILLER_105_875
*1299 FILLER_105_882
*1300 FILLER_105_889
*1301 FILLER_105_896
*1302 FILLER_105_903
*1303 FILLER_105_91
*1304 FILLER_105_910
*1305 FILLER_105_917
*1306 FILLER_105_924
*1307 FILLER_105_931
*1308 FILLER_105_938
*1309 FILLER_105_945
*1310 FILLER_105_952
*1311 FILLER_105_959
*1312 FILLER_105_966
*1313 FILLER_105_973
*1314 FILLER_105_98
*1315 FILLER_105_980
*1316 FILLER_105_987
*1317 FILLER_105_994
*1318 FILLER_106_0
*1319 FILLER_106_1001
*1320 FILLER_106_1008
*1321 FILLER_106_1015
*1322 FILLER_106_1022
*1323 FILLER_106_1029
*1324 FILLER_106_1036
*1325 FILLER_106_1043
*1326 FILLER_106_105
*1327 FILLER_106_1050
*1328 FILLER_106_112
*1329 FILLER_106_119
*1330 FILLER_106_126
*1331 FILLER_106_133
*1332 FILLER_106_14
*1333 FILLER_106_140
*1334 FILLER_106_147
*1335 FILLER_106_154
*1336 FILLER_106_161
*1337 FILLER_106_168
*1338 FILLER_106_175
*1339 FILLER_106_182
*1340 FILLER_106_189
*1341 FILLER_106_196
*1342 FILLER_106_203
*1343 FILLER_106_21
*1344 FILLER_106_210
*1345 FILLER_106_217
*1346 FILLER_106_224
*1347 FILLER_106_231
*1348 FILLER_106_238
*1349 FILLER_106_245
*1350 FILLER_106_252
*1351 FILLER_106_259
*1352 FILLER_106_266
*1353 FILLER_106_273
*1354 FILLER_106_28
*1355 FILLER_106_280
*1356 FILLER_106_287
*1357 FILLER_106_294
*1358 FILLER_106_301
*1359 FILLER_106_308
*1360 FILLER_106_315
*1361 FILLER_106_322
*1362 FILLER_106_329
*1363 FILLER_106_336
*1364 FILLER_106_343
*1365 FILLER_106_35
*1366 FILLER_106_350
*1367 FILLER_106_357
*1368 FILLER_106_364
*1369 FILLER_106_371
*1370 FILLER_106_378
*1371 FILLER_106_385
*1372 FILLER_106_392
*1373 FILLER_106_399
*1374 FILLER_106_406
*1375 FILLER_106_413
*1376 FILLER_106_42
*1377 FILLER_106_420
*1378 FILLER_106_427
*1379 FILLER_106_434
*1380 FILLER_106_441
*1381 FILLER_106_448
*1382 FILLER_106_455
*1383 FILLER_106_462
*1384 FILLER_106_469
*1385 FILLER_106_476
*1386 FILLER_106_483
*1387 FILLER_106_49
*1388 FILLER_106_490
*1389 FILLER_106_497
*1390 FILLER_106_504
*1391 FILLER_106_511
*1392 FILLER_106_518
*1393 FILLER_106_525
*1394 FILLER_106_532
*1395 FILLER_106_539
*1396 FILLER_106_546
*1397 FILLER_106_553
*1398 FILLER_106_56
*1399 FILLER_106_560
*1400 FILLER_106_567
*1401 FILLER_106_574
*1402 FILLER_106_581
*1403 FILLER_106_588
*1404 FILLER_106_595
*1405 FILLER_106_602
*1406 FILLER_106_609
*1407 FILLER_106_616
*1408 FILLER_106_623
*1409 FILLER_106_63
*1410 FILLER_106_630
*1411 FILLER_106_637
*1412 FILLER_106_644
*1413 FILLER_106_651
*1414 FILLER_106_658
*1415 FILLER_106_665
*1416 FILLER_106_672
*1417 FILLER_106_679
*1418 FILLER_106_686
*1419 FILLER_106_693
*1420 FILLER_106_7
*1421 FILLER_106_70
*1422 FILLER_106_700
*1423 FILLER_106_707
*1424 FILLER_106_714
*1425 FILLER_106_721
*1426 FILLER_106_728
*1427 FILLER_106_735
*1428 FILLER_106_742
*1429 FILLER_106_749
*1430 FILLER_106_756
*1431 FILLER_106_763
*1432 FILLER_106_77
*1433 FILLER_106_770
*1434 FILLER_106_777
*1435 FILLER_106_784
*1436 FILLER_106_791
*1437 FILLER_106_798
*1438 FILLER_106_805
*1439 FILLER_106_812
*1440 FILLER_106_819
*1441 FILLER_106_826
*1442 FILLER_106_833
*1443 FILLER_106_84
*1444 FILLER_106_840
*1445 FILLER_106_847
*1446 FILLER_106_854
*1447 FILLER_106_861
*1448 FILLER_106_868
*1449 FILLER_106_875
*1450 FILLER_106_882
*1451 FILLER_106_889
*1452 FILLER_106_896
*1453 FILLER_106_903
*1454 FILLER_106_91
*1455 FILLER_106_910
*1456 FILLER_106_917
*1457 FILLER_106_924
*1458 FILLER_106_931
*1459 FILLER_106_938
*1460 FILLER_106_945
*1461 FILLER_106_952
*1462 FILLER_106_959
*1463 FILLER_106_966
*1464 FILLER_106_973
*1465 FILLER_106_98
*1466 FILLER_106_980
*1467 FILLER_106_987
*1468 FILLER_106_994
*1469 FILLER_10_1004
*1470 FILLER_10_1011
*1471 FILLER_10_1018
*1472 FILLER_10_1025
*1473 FILLER_10_1032
*1474 FILLER_10_1039
*1475 FILLER_10_1046
*1476 FILLER_10_1050
*1477 FILLER_10_15
*1478 FILLER_10_22
*1479 FILLER_10_29
*1480 FILLER_10_36
*1481 FILLER_10_43
*1482 FILLER_10_50
*1483 FILLER_10_57
*1484 FILLER_10_64
*1485 FILLER_10_71
*1486 FILLER_10_78
*1487 FILLER_10_8
*1488 FILLER_10_82
*1489 FILLER_10_969
*1490 FILLER_10_976
*1491 FILLER_10_983
*1492 FILLER_10_990
*1493 FILLER_10_997
*1494 FILLER_11_0
*1495 FILLER_11_1000
*1496 FILLER_11_1007
*1497 FILLER_11_1014
*1498 FILLER_11_1021
*1499 FILLER_11_1028
*1500 FILLER_11_1035
*1501 FILLER_11_1042
*1502 FILLER_11_1049
*1503 FILLER_11_1051
*1504 FILLER_11_14
*1505 FILLER_11_21
*1506 FILLER_11_28
*1507 FILLER_11_35
*1508 FILLER_11_42
*1509 FILLER_11_49
*1510 FILLER_11_56
*1511 FILLER_11_63
*1512 FILLER_11_7
*1513 FILLER_11_70
*1514 FILLER_11_77
*1515 FILLER_11_84
*1516 FILLER_11_965
*1517 FILLER_11_972
*1518 FILLER_11_979
*1519 FILLER_11_986
*1520 FILLER_11_993
*1521 FILLER_12_0
*1522 FILLER_12_1000
*1523 FILLER_12_1007
*1524 FILLER_12_1014
*1525 FILLER_12_1021
*1526 FILLER_12_1028
*1527 FILLER_12_1035
*1528 FILLER_12_1042
*1529 FILLER_12_1049
*1530 FILLER_12_1051
*1531 FILLER_12_14
*1532 FILLER_12_21
*1533 FILLER_12_28
*1534 FILLER_12_35
*1535 FILLER_12_42
*1536 FILLER_12_49
*1537 FILLER_12_56
*1538 FILLER_12_63
*1539 FILLER_12_7
*1540 FILLER_12_70
*1541 FILLER_12_77
*1542 FILLER_12_84
*1543 FILLER_12_965
*1544 FILLER_12_972
*1545 FILLER_12_979
*1546 FILLER_12_986
*1547 FILLER_12_993
*1548 FILLER_13_0
*1549 FILLER_13_1000
*1550 FILLER_13_1007
*1551 FILLER_13_1014
*1552 FILLER_13_1021
*1553 FILLER_13_1028
*1554 FILLER_13_1035
*1555 FILLER_13_1042
*1556 FILLER_13_1049
*1557 FILLER_13_1051
*1558 FILLER_13_14
*1559 FILLER_13_21
*1560 FILLER_13_28
*1561 FILLER_13_35
*1562 FILLER_13_42
*1563 FILLER_13_49
*1564 FILLER_13_56
*1565 FILLER_13_63
*1566 FILLER_13_7
*1567 FILLER_13_70
*1568 FILLER_13_77
*1569 FILLER_13_84
*1570 FILLER_13_965
*1571 FILLER_13_972
*1572 FILLER_13_979
*1573 FILLER_13_986
*1574 FILLER_13_993
*1575 FILLER_14_0
*1576 FILLER_14_1000
*1577 FILLER_14_1007
*1578 FILLER_14_1014
*1579 FILLER_14_1021
*1580 FILLER_14_1028
*1581 FILLER_14_1035
*1582 FILLER_14_1042
*1583 FILLER_14_1049
*1584 FILLER_14_1051
*1585 FILLER_14_14
*1586 FILLER_14_21
*1587 FILLER_14_28
*1588 FILLER_14_35
*1589 FILLER_14_42
*1590 FILLER_14_49
*1591 FILLER_14_56
*1592 FILLER_14_63
*1593 FILLER_14_7
*1594 FILLER_14_70
*1595 FILLER_14_77
*1596 FILLER_14_84
*1597 FILLER_14_965
*1598 FILLER_14_972
*1599 FILLER_14_979
*1600 FILLER_14_986
*1601 FILLER_14_993
*1602 FILLER_15_0
*1603 FILLER_15_1000
*1604 FILLER_15_1007
*1605 FILLER_15_1014
*1606 FILLER_15_1021
*1607 FILLER_15_1028
*1608 FILLER_15_1035
*1609 FILLER_15_1042
*1610 FILLER_15_1049
*1611 FILLER_15_1051
*1612 FILLER_15_14
*1613 FILLER_15_21
*1614 FILLER_15_28
*1615 FILLER_15_35
*1616 FILLER_15_42
*1617 FILLER_15_49
*1618 FILLER_15_56
*1619 FILLER_15_63
*1620 FILLER_15_7
*1621 FILLER_15_70
*1622 FILLER_15_77
*1623 FILLER_15_84
*1624 FILLER_15_965
*1625 FILLER_15_972
*1626 FILLER_15_979
*1627 FILLER_15_986
*1628 FILLER_15_993
*1629 FILLER_16_0
*1630 FILLER_16_1000
*1631 FILLER_16_1007
*1632 FILLER_16_1014
*1633 FILLER_16_1021
*1634 FILLER_16_1028
*1635 FILLER_16_1035
*1636 FILLER_16_1042
*1637 FILLER_16_1049
*1638 FILLER_16_1051
*1639 FILLER_16_14
*1640 FILLER_16_21
*1641 FILLER_16_28
*1642 FILLER_16_35
*1643 FILLER_16_42
*1644 FILLER_16_49
*1645 FILLER_16_56
*1646 FILLER_16_63
*1647 FILLER_16_7
*1648 FILLER_16_70
*1649 FILLER_16_77
*1650 FILLER_16_84
*1651 FILLER_16_965
*1652 FILLER_16_972
*1653 FILLER_16_979
*1654 FILLER_16_986
*1655 FILLER_16_993
*1656 FILLER_17_0
*1657 FILLER_17_1000
*1658 FILLER_17_1007
*1659 FILLER_17_1014
*1660 FILLER_17_1021
*1661 FILLER_17_1028
*1662 FILLER_17_1035
*1663 FILLER_17_1042
*1664 FILLER_17_1049
*1665 FILLER_17_1051
*1666 FILLER_17_14
*1667 FILLER_17_21
*1668 FILLER_17_28
*1669 FILLER_17_35
*1670 FILLER_17_42
*1671 FILLER_17_49
*1672 FILLER_17_56
*1673 FILLER_17_63
*1674 FILLER_17_7
*1675 FILLER_17_70
*1676 FILLER_17_77
*1677 FILLER_17_84
*1678 FILLER_17_965
*1679 FILLER_17_972
*1680 FILLER_17_979
*1681 FILLER_17_986
*1682 FILLER_17_993
*1683 FILLER_18_0
*1684 FILLER_18_1000
*1685 FILLER_18_1007
*1686 FILLER_18_1014
*1687 FILLER_18_1021
*1688 FILLER_18_1028
*1689 FILLER_18_1035
*1690 FILLER_18_1042
*1691 FILLER_18_1049
*1692 FILLER_18_1051
*1693 FILLER_18_14
*1694 FILLER_18_21
*1695 FILLER_18_28
*1696 FILLER_18_35
*1697 FILLER_18_42
*1698 FILLER_18_49
*1699 FILLER_18_56
*1700 FILLER_18_63
*1701 FILLER_18_7
*1702 FILLER_18_70
*1703 FILLER_18_77
*1704 FILLER_18_84
*1705 FILLER_18_965
*1706 FILLER_18_972
*1707 FILLER_18_979
*1708 FILLER_18_986
*1709 FILLER_18_993
*1710 FILLER_19_0
*1711 FILLER_19_1000
*1712 FILLER_19_1007
*1713 FILLER_19_1014
*1714 FILLER_19_1021
*1715 FILLER_19_1028
*1716 FILLER_19_1035
*1717 FILLER_19_1042
*1718 FILLER_19_1049
*1719 FILLER_19_1051
*1720 FILLER_19_14
*1721 FILLER_19_21
*1722 FILLER_19_28
*1723 FILLER_19_35
*1724 FILLER_19_42
*1725 FILLER_19_49
*1726 FILLER_19_56
*1727 FILLER_19_63
*1728 FILLER_19_7
*1729 FILLER_19_70
*1730 FILLER_19_77
*1731 FILLER_19_84
*1732 FILLER_19_965
*1733 FILLER_19_972
*1734 FILLER_19_979
*1735 FILLER_19_986
*1736 FILLER_19_993
*1737 FILLER_1_0
*1738 FILLER_1_1001
*1739 FILLER_1_1008
*1740 FILLER_1_1015
*1741 FILLER_1_1022
*1742 FILLER_1_1029
*1743 FILLER_1_1036
*1744 FILLER_1_1043
*1745 FILLER_1_105
*1746 FILLER_1_1050
*1747 FILLER_1_112
*1748 FILLER_1_119
*1749 FILLER_1_126
*1750 FILLER_1_133
*1751 FILLER_1_14
*1752 FILLER_1_140
*1753 FILLER_1_147
*1754 FILLER_1_154
*1755 FILLER_1_161
*1756 FILLER_1_168
*1757 FILLER_1_175
*1758 FILLER_1_182
*1759 FILLER_1_189
*1760 FILLER_1_196
*1761 FILLER_1_203
*1762 FILLER_1_21
*1763 FILLER_1_210
*1764 FILLER_1_217
*1765 FILLER_1_224
*1766 FILLER_1_231
*1767 FILLER_1_238
*1768 FILLER_1_245
*1769 FILLER_1_252
*1770 FILLER_1_259
*1771 FILLER_1_266
*1772 FILLER_1_273
*1773 FILLER_1_28
*1774 FILLER_1_280
*1775 FILLER_1_287
*1776 FILLER_1_294
*1777 FILLER_1_301
*1778 FILLER_1_308
*1779 FILLER_1_315
*1780 FILLER_1_322
*1781 FILLER_1_329
*1782 FILLER_1_336
*1783 FILLER_1_343
*1784 FILLER_1_35
*1785 FILLER_1_350
*1786 FILLER_1_357
*1787 FILLER_1_364
*1788 FILLER_1_371
*1789 FILLER_1_378
*1790 FILLER_1_385
*1791 FILLER_1_392
*1792 FILLER_1_399
*1793 FILLER_1_406
*1794 FILLER_1_413
*1795 FILLER_1_42
*1796 FILLER_1_420
*1797 FILLER_1_427
*1798 FILLER_1_434
*1799 FILLER_1_441
*1800 FILLER_1_448
*1801 FILLER_1_455
*1802 FILLER_1_462
*1803 FILLER_1_469
*1804 FILLER_1_476
*1805 FILLER_1_483
*1806 FILLER_1_49
*1807 FILLER_1_490
*1808 FILLER_1_497
*1809 FILLER_1_504
*1810 FILLER_1_511
*1811 FILLER_1_518
*1812 FILLER_1_525
*1813 FILLER_1_532
*1814 FILLER_1_539
*1815 FILLER_1_546
*1816 FILLER_1_553
*1817 FILLER_1_56
*1818 FILLER_1_560
*1819 FILLER_1_567
*1820 FILLER_1_574
*1821 FILLER_1_581
*1822 FILLER_1_588
*1823 FILLER_1_595
*1824 FILLER_1_602
*1825 FILLER_1_609
*1826 FILLER_1_616
*1827 FILLER_1_623
*1828 FILLER_1_63
*1829 FILLER_1_630
*1830 FILLER_1_637
*1831 FILLER_1_644
*1832 FILLER_1_651
*1833 FILLER_1_658
*1834 FILLER_1_665
*1835 FILLER_1_672
*1836 FILLER_1_679
*1837 FILLER_1_686
*1838 FILLER_1_693
*1839 FILLER_1_7
*1840 FILLER_1_70
*1841 FILLER_1_700
*1842 FILLER_1_707
*1843 FILLER_1_714
*1844 FILLER_1_721
*1845 FILLER_1_728
*1846 FILLER_1_735
*1847 FILLER_1_742
*1848 FILLER_1_749
*1849 FILLER_1_756
*1850 FILLER_1_763
*1851 FILLER_1_77
*1852 FILLER_1_770
*1853 FILLER_1_777
*1854 FILLER_1_784
*1855 FILLER_1_791
*1856 FILLER_1_798
*1857 FILLER_1_800
*1858 FILLER_1_805
*1859 FILLER_1_812
*1860 FILLER_1_819
*1861 FILLER_1_826
*1862 FILLER_1_833
*1863 FILLER_1_84
*1864 FILLER_1_840
*1865 FILLER_1_847
*1866 FILLER_1_854
*1867 FILLER_1_861
*1868 FILLER_1_868
*1869 FILLER_1_875
*1870 FILLER_1_882
*1871 FILLER_1_889
*1872 FILLER_1_896
*1873 FILLER_1_903
*1874 FILLER_1_91
*1875 FILLER_1_910
*1876 FILLER_1_917
*1877 FILLER_1_924
*1878 FILLER_1_931
*1879 FILLER_1_938
*1880 FILLER_1_945
*1881 FILLER_1_952
*1882 FILLER_1_959
*1883 FILLER_1_966
*1884 FILLER_1_973
*1885 FILLER_1_98
*1886 FILLER_1_980
*1887 FILLER_1_987
*1888 FILLER_1_994
*1889 FILLER_20_0
*1890 FILLER_20_1000
*1891 FILLER_20_1007
*1892 FILLER_20_1014
*1893 FILLER_20_1021
*1894 FILLER_20_1028
*1895 FILLER_20_1035
*1896 FILLER_20_1042
*1897 FILLER_20_1049
*1898 FILLER_20_1051
*1899 FILLER_20_14
*1900 FILLER_20_21
*1901 FILLER_20_28
*1902 FILLER_20_35
*1903 FILLER_20_42
*1904 FILLER_20_49
*1905 FILLER_20_56
*1906 FILLER_20_63
*1907 FILLER_20_7
*1908 FILLER_20_70
*1909 FILLER_20_77
*1910 FILLER_20_84
*1911 FILLER_20_965
*1912 FILLER_20_972
*1913 FILLER_20_979
*1914 FILLER_20_986
*1915 FILLER_20_993
*1916 FILLER_21_0
*1917 FILLER_21_1000
*1918 FILLER_21_1007
*1919 FILLER_21_1014
*1920 FILLER_21_1021
*1921 FILLER_21_1028
*1922 FILLER_21_1035
*1923 FILLER_21_1042
*1924 FILLER_21_1049
*1925 FILLER_21_1051
*1926 FILLER_21_14
*1927 FILLER_21_21
*1928 FILLER_21_28
*1929 FILLER_21_35
*1930 FILLER_21_42
*1931 FILLER_21_49
*1932 FILLER_21_56
*1933 FILLER_21_63
*1934 FILLER_21_7
*1935 FILLER_21_70
*1936 FILLER_21_77
*1937 FILLER_21_84
*1938 FILLER_21_965
*1939 FILLER_21_972
*1940 FILLER_21_979
*1941 FILLER_21_986
*1942 FILLER_21_993
*1943 FILLER_22_0
*1944 FILLER_22_1000
*1945 FILLER_22_1007
*1946 FILLER_22_1014
*1947 FILLER_22_1021
*1948 FILLER_22_1028
*1949 FILLER_22_1035
*1950 FILLER_22_1042
*1951 FILLER_22_1049
*1952 FILLER_22_1051
*1953 FILLER_22_14
*1954 FILLER_22_21
*1955 FILLER_22_28
*1956 FILLER_22_35
*1957 FILLER_22_42
*1958 FILLER_22_49
*1959 FILLER_22_56
*1960 FILLER_22_63
*1961 FILLER_22_7
*1962 FILLER_22_70
*1963 FILLER_22_77
*1964 FILLER_22_84
*1965 FILLER_22_965
*1966 FILLER_22_972
*1967 FILLER_22_979
*1968 FILLER_22_986
*1969 FILLER_22_993
*1970 FILLER_23_0
*1971 FILLER_23_1000
*1972 FILLER_23_1007
*1973 FILLER_23_1014
*1974 FILLER_23_1021
*1975 FILLER_23_1028
*1976 FILLER_23_1035
*1977 FILLER_23_1042
*1978 FILLER_23_1049
*1979 FILLER_23_1051
*1980 FILLER_23_14
*1981 FILLER_23_21
*1982 FILLER_23_28
*1983 FILLER_23_35
*1984 FILLER_23_42
*1985 FILLER_23_49
*1986 FILLER_23_56
*1987 FILLER_23_63
*1988 FILLER_23_7
*1989 FILLER_23_70
*1990 FILLER_23_77
*1991 FILLER_23_84
*1992 FILLER_23_965
*1993 FILLER_23_972
*1994 FILLER_23_979
*1995 FILLER_23_986
*1996 FILLER_23_993
*1997 FILLER_24_0
*1998 FILLER_24_1000
*1999 FILLER_24_1007
*2000 FILLER_24_1014
*2001 FILLER_24_1021
*2002 FILLER_24_1028
*2003 FILLER_24_1035
*2004 FILLER_24_1042
*2005 FILLER_24_1049
*2006 FILLER_24_1051
*2007 FILLER_24_14
*2008 FILLER_24_21
*2009 FILLER_24_28
*2010 FILLER_24_35
*2011 FILLER_24_42
*2012 FILLER_24_49
*2013 FILLER_24_56
*2014 FILLER_24_63
*2015 FILLER_24_7
*2016 FILLER_24_70
*2017 FILLER_24_77
*2018 FILLER_24_84
*2019 FILLER_24_965
*2020 FILLER_24_972
*2021 FILLER_24_979
*2022 FILLER_24_986
*2023 FILLER_24_993
*2024 FILLER_25_0
*2025 FILLER_25_1000
*2026 FILLER_25_1007
*2027 FILLER_25_1014
*2028 FILLER_25_1021
*2029 FILLER_25_1028
*2030 FILLER_25_1035
*2031 FILLER_25_1042
*2032 FILLER_25_1049
*2033 FILLER_25_1051
*2034 FILLER_25_14
*2035 FILLER_25_21
*2036 FILLER_25_28
*2037 FILLER_25_35
*2038 FILLER_25_42
*2039 FILLER_25_49
*2040 FILLER_25_56
*2041 FILLER_25_63
*2042 FILLER_25_7
*2043 FILLER_25_70
*2044 FILLER_25_77
*2045 FILLER_25_84
*2046 FILLER_25_965
*2047 FILLER_25_972
*2048 FILLER_25_979
*2049 FILLER_25_986
*2050 FILLER_25_993
*2051 FILLER_26_0
*2052 FILLER_26_1000
*2053 FILLER_26_1007
*2054 FILLER_26_1014
*2055 FILLER_26_1021
*2056 FILLER_26_1028
*2057 FILLER_26_1035
*2058 FILLER_26_1042
*2059 FILLER_26_1049
*2060 FILLER_26_1051
*2061 FILLER_26_14
*2062 FILLER_26_21
*2063 FILLER_26_28
*2064 FILLER_26_35
*2065 FILLER_26_42
*2066 FILLER_26_49
*2067 FILLER_26_56
*2068 FILLER_26_63
*2069 FILLER_26_7
*2070 FILLER_26_70
*2071 FILLER_26_77
*2072 FILLER_26_84
*2073 FILLER_26_965
*2074 FILLER_26_972
*2075 FILLER_26_979
*2076 FILLER_26_986
*2077 FILLER_26_993
*2078 FILLER_27_0
*2079 FILLER_27_1000
*2080 FILLER_27_1007
*2081 FILLER_27_1014
*2082 FILLER_27_1021
*2083 FILLER_27_1028
*2084 FILLER_27_1035
*2085 FILLER_27_1042
*2086 FILLER_27_1049
*2087 FILLER_27_1051
*2088 FILLER_27_14
*2089 FILLER_27_21
*2090 FILLER_27_28
*2091 FILLER_27_35
*2092 FILLER_27_42
*2093 FILLER_27_49
*2094 FILLER_27_56
*2095 FILLER_27_63
*2096 FILLER_27_7
*2097 FILLER_27_70
*2098 FILLER_27_77
*2099 FILLER_27_84
*2100 FILLER_27_965
*2101 FILLER_27_972
*2102 FILLER_27_979
*2103 FILLER_27_986
*2104 FILLER_27_993
*2105 FILLER_28_0
*2106 FILLER_28_1000
*2107 FILLER_28_1007
*2108 FILLER_28_1014
*2109 FILLER_28_1021
*2110 FILLER_28_1028
*2111 FILLER_28_1035
*2112 FILLER_28_1042
*2113 FILLER_28_1049
*2114 FILLER_28_1051
*2115 FILLER_28_14
*2116 FILLER_28_21
*2117 FILLER_28_28
*2118 FILLER_28_35
*2119 FILLER_28_42
*2120 FILLER_28_49
*2121 FILLER_28_56
*2122 FILLER_28_63
*2123 FILLER_28_7
*2124 FILLER_28_70
*2125 FILLER_28_77
*2126 FILLER_28_84
*2127 FILLER_28_965
*2128 FILLER_28_972
*2129 FILLER_28_979
*2130 FILLER_28_986
*2131 FILLER_28_993
*2132 FILLER_29_0
*2133 FILLER_29_1000
*2134 FILLER_29_1007
*2135 FILLER_29_1014
*2136 FILLER_29_1021
*2137 FILLER_29_1028
*2138 FILLER_29_1035
*2139 FILLER_29_1042
*2140 FILLER_29_1049
*2141 FILLER_29_1051
*2142 FILLER_29_14
*2143 FILLER_29_21
*2144 FILLER_29_28
*2145 FILLER_29_35
*2146 FILLER_29_42
*2147 FILLER_29_49
*2148 FILLER_29_56
*2149 FILLER_29_63
*2150 FILLER_29_7
*2151 FILLER_29_70
*2152 FILLER_29_77
*2153 FILLER_29_84
*2154 FILLER_29_965
*2155 FILLER_29_972
*2156 FILLER_29_979
*2157 FILLER_29_986
*2158 FILLER_29_993
*2159 FILLER_2_0
*2160 FILLER_2_1001
*2161 FILLER_2_1008
*2162 FILLER_2_1015
*2163 FILLER_2_1022
*2164 FILLER_2_1029
*2165 FILLER_2_1036
*2166 FILLER_2_1043
*2167 FILLER_2_105
*2168 FILLER_2_1050
*2169 FILLER_2_112
*2170 FILLER_2_119
*2171 FILLER_2_126
*2172 FILLER_2_133
*2173 FILLER_2_14
*2174 FILLER_2_140
*2175 FILLER_2_147
*2176 FILLER_2_154
*2177 FILLER_2_161
*2178 FILLER_2_168
*2179 FILLER_2_175
*2180 FILLER_2_182
*2181 FILLER_2_189
*2182 FILLER_2_196
*2183 FILLER_2_203
*2184 FILLER_2_21
*2185 FILLER_2_210
*2186 FILLER_2_217
*2187 FILLER_2_224
*2188 FILLER_2_231
*2189 FILLER_2_238
*2190 FILLER_2_245
*2191 FILLER_2_252
*2192 FILLER_2_259
*2193 FILLER_2_266
*2194 FILLER_2_273
*2195 FILLER_2_28
*2196 FILLER_2_280
*2197 FILLER_2_287
*2198 FILLER_2_294
*2199 FILLER_2_301
*2200 FILLER_2_308
*2201 FILLER_2_315
*2202 FILLER_2_322
*2203 FILLER_2_329
*2204 FILLER_2_336
*2205 FILLER_2_343
*2206 FILLER_2_35
*2207 FILLER_2_350
*2208 FILLER_2_357
*2209 FILLER_2_364
*2210 FILLER_2_371
*2211 FILLER_2_378
*2212 FILLER_2_385
*2213 FILLER_2_392
*2214 FILLER_2_399
*2215 FILLER_2_406
*2216 FILLER_2_413
*2217 FILLER_2_42
*2218 FILLER_2_420
*2219 FILLER_2_427
*2220 FILLER_2_434
*2221 FILLER_2_441
*2222 FILLER_2_448
*2223 FILLER_2_455
*2224 FILLER_2_462
*2225 FILLER_2_469
*2226 FILLER_2_476
*2227 FILLER_2_483
*2228 FILLER_2_49
*2229 FILLER_2_490
*2230 FILLER_2_497
*2231 FILLER_2_504
*2232 FILLER_2_511
*2233 FILLER_2_518
*2234 FILLER_2_525
*2235 FILLER_2_532
*2236 FILLER_2_539
*2237 FILLER_2_546
*2238 FILLER_2_553
*2239 FILLER_2_56
*2240 FILLER_2_560
*2241 FILLER_2_567
*2242 FILLER_2_574
*2243 FILLER_2_581
*2244 FILLER_2_588
*2245 FILLER_2_595
*2246 FILLER_2_602
*2247 FILLER_2_609
*2248 FILLER_2_616
*2249 FILLER_2_623
*2250 FILLER_2_63
*2251 FILLER_2_630
*2252 FILLER_2_637
*2253 FILLER_2_644
*2254 FILLER_2_651
*2255 FILLER_2_658
*2256 FILLER_2_665
*2257 FILLER_2_672
*2258 FILLER_2_679
*2259 FILLER_2_686
*2260 FILLER_2_693
*2261 FILLER_2_7
*2262 FILLER_2_70
*2263 FILLER_2_700
*2264 FILLER_2_707
*2265 FILLER_2_714
*2266 FILLER_2_721
*2267 FILLER_2_728
*2268 FILLER_2_735
*2269 FILLER_2_742
*2270 FILLER_2_749
*2271 FILLER_2_756
*2272 FILLER_2_763
*2273 FILLER_2_77
*2274 FILLER_2_770
*2275 FILLER_2_777
*2276 FILLER_2_784
*2277 FILLER_2_791
*2278 FILLER_2_798
*2279 FILLER_2_805
*2280 FILLER_2_812
*2281 FILLER_2_819
*2282 FILLER_2_826
*2283 FILLER_2_833
*2284 FILLER_2_84
*2285 FILLER_2_840
*2286 FILLER_2_847
*2287 FILLER_2_854
*2288 FILLER_2_861
*2289 FILLER_2_868
*2290 FILLER_2_875
*2291 FILLER_2_882
*2292 FILLER_2_889
*2293 FILLER_2_896
*2294 FILLER_2_903
*2295 FILLER_2_91
*2296 FILLER_2_910
*2297 FILLER_2_917
*2298 FILLER_2_924
*2299 FILLER_2_931
*2300 FILLER_2_938
*2301 FILLER_2_945
*2302 FILLER_2_952
*2303 FILLER_2_959
*2304 FILLER_2_966
*2305 FILLER_2_973
*2306 FILLER_2_98
*2307 FILLER_2_980
*2308 FILLER_2_987
*2309 FILLER_2_994
*2310 FILLER_30_0
*2311 FILLER_30_1000
*2312 FILLER_30_1007
*2313 FILLER_30_1014
*2314 FILLER_30_1021
*2315 FILLER_30_1028
*2316 FILLER_30_1035
*2317 FILLER_30_1042
*2318 FILLER_30_1049
*2319 FILLER_30_1051
*2320 FILLER_30_14
*2321 FILLER_30_21
*2322 FILLER_30_28
*2323 FILLER_30_35
*2324 FILLER_30_42
*2325 FILLER_30_49
*2326 FILLER_30_56
*2327 FILLER_30_63
*2328 FILLER_30_7
*2329 FILLER_30_70
*2330 FILLER_30_77
*2331 FILLER_30_84
*2332 FILLER_30_965
*2333 FILLER_30_972
*2334 FILLER_30_979
*2335 FILLER_30_986
*2336 FILLER_30_993
*2337 FILLER_31_0
*2338 FILLER_31_1000
*2339 FILLER_31_1007
*2340 FILLER_31_1014
*2341 FILLER_31_1021
*2342 FILLER_31_1028
*2343 FILLER_31_1035
*2344 FILLER_31_1042
*2345 FILLER_31_1049
*2346 FILLER_31_1051
*2347 FILLER_31_14
*2348 FILLER_31_21
*2349 FILLER_31_28
*2350 FILLER_31_35
*2351 FILLER_31_42
*2352 FILLER_31_49
*2353 FILLER_31_56
*2354 FILLER_31_63
*2355 FILLER_31_7
*2356 FILLER_31_70
*2357 FILLER_31_77
*2358 FILLER_31_84
*2359 FILLER_31_965
*2360 FILLER_31_972
*2361 FILLER_31_979
*2362 FILLER_31_986
*2363 FILLER_31_993
*2364 FILLER_32_0
*2365 FILLER_32_1000
*2366 FILLER_32_1007
*2367 FILLER_32_1014
*2368 FILLER_32_1021
*2369 FILLER_32_1028
*2370 FILLER_32_1035
*2371 FILLER_32_1042
*2372 FILLER_32_1049
*2373 FILLER_32_1051
*2374 FILLER_32_14
*2375 FILLER_32_21
*2376 FILLER_32_28
*2377 FILLER_32_35
*2378 FILLER_32_42
*2379 FILLER_32_49
*2380 FILLER_32_56
*2381 FILLER_32_63
*2382 FILLER_32_7
*2383 FILLER_32_70
*2384 FILLER_32_77
*2385 FILLER_32_84
*2386 FILLER_32_965
*2387 FILLER_32_972
*2388 FILLER_32_979
*2389 FILLER_32_986
*2390 FILLER_32_993
*2391 FILLER_33_0
*2392 FILLER_33_1000
*2393 FILLER_33_1007
*2394 FILLER_33_1014
*2395 FILLER_33_1021
*2396 FILLER_33_1028
*2397 FILLER_33_1035
*2398 FILLER_33_1042
*2399 FILLER_33_1049
*2400 FILLER_33_1051
*2401 FILLER_33_14
*2402 FILLER_33_21
*2403 FILLER_33_28
*2404 FILLER_33_35
*2405 FILLER_33_42
*2406 FILLER_33_49
*2407 FILLER_33_56
*2408 FILLER_33_63
*2409 FILLER_33_7
*2410 FILLER_33_70
*2411 FILLER_33_77
*2412 FILLER_33_84
*2413 FILLER_33_965
*2414 FILLER_33_972
*2415 FILLER_33_979
*2416 FILLER_33_986
*2417 FILLER_33_993
*2418 FILLER_34_0
*2419 FILLER_34_1000
*2420 FILLER_34_1007
*2421 FILLER_34_1014
*2422 FILLER_34_1021
*2423 FILLER_34_1028
*2424 FILLER_34_1035
*2425 FILLER_34_1042
*2426 FILLER_34_1049
*2427 FILLER_34_1051
*2428 FILLER_34_14
*2429 FILLER_34_21
*2430 FILLER_34_28
*2431 FILLER_34_35
*2432 FILLER_34_42
*2433 FILLER_34_49
*2434 FILLER_34_56
*2435 FILLER_34_63
*2436 FILLER_34_7
*2437 FILLER_34_70
*2438 FILLER_34_77
*2439 FILLER_34_84
*2440 FILLER_34_965
*2441 FILLER_34_972
*2442 FILLER_34_979
*2443 FILLER_34_986
*2444 FILLER_34_993
*2445 FILLER_35_0
*2446 FILLER_35_1000
*2447 FILLER_35_1007
*2448 FILLER_35_1014
*2449 FILLER_35_1021
*2450 FILLER_35_1028
*2451 FILLER_35_1035
*2452 FILLER_35_1042
*2453 FILLER_35_1049
*2454 FILLER_35_1051
*2455 FILLER_35_14
*2456 FILLER_35_21
*2457 FILLER_35_28
*2458 FILLER_35_35
*2459 FILLER_35_42
*2460 FILLER_35_49
*2461 FILLER_35_56
*2462 FILLER_35_63
*2463 FILLER_35_7
*2464 FILLER_35_70
*2465 FILLER_35_77
*2466 FILLER_35_84
*2467 FILLER_35_965
*2468 FILLER_35_972
*2469 FILLER_35_979
*2470 FILLER_35_986
*2471 FILLER_35_993
*2472 FILLER_36_0
*2473 FILLER_36_1000
*2474 FILLER_36_1007
*2475 FILLER_36_1014
*2476 FILLER_36_1021
*2477 FILLER_36_1028
*2478 FILLER_36_1035
*2479 FILLER_36_1042
*2480 FILLER_36_1049
*2481 FILLER_36_1051
*2482 FILLER_36_14
*2483 FILLER_36_21
*2484 FILLER_36_28
*2485 FILLER_36_35
*2486 FILLER_36_42
*2487 FILLER_36_49
*2488 FILLER_36_56
*2489 FILLER_36_63
*2490 FILLER_36_7
*2491 FILLER_36_70
*2492 FILLER_36_77
*2493 FILLER_36_84
*2494 FILLER_36_965
*2495 FILLER_36_972
*2496 FILLER_36_979
*2497 FILLER_36_986
*2498 FILLER_36_993
*2499 FILLER_37_0
*2500 FILLER_37_1000
*2501 FILLER_37_1007
*2502 FILLER_37_1014
*2503 FILLER_37_1021
*2504 FILLER_37_1028
*2505 FILLER_37_1035
*2506 FILLER_37_1042
*2507 FILLER_37_1049
*2508 FILLER_37_1051
*2509 FILLER_37_14
*2510 FILLER_37_21
*2511 FILLER_37_28
*2512 FILLER_37_35
*2513 FILLER_37_42
*2514 FILLER_37_49
*2515 FILLER_37_56
*2516 FILLER_37_63
*2517 FILLER_37_7
*2518 FILLER_37_70
*2519 FILLER_37_77
*2520 FILLER_37_84
*2521 FILLER_37_965
*2522 FILLER_37_972
*2523 FILLER_37_979
*2524 FILLER_37_986
*2525 FILLER_37_993
*2526 FILLER_38_0
*2527 FILLER_38_1000
*2528 FILLER_38_1007
*2529 FILLER_38_1014
*2530 FILLER_38_1021
*2531 FILLER_38_1028
*2532 FILLER_38_1035
*2533 FILLER_38_1042
*2534 FILLER_38_1049
*2535 FILLER_38_1051
*2536 FILLER_38_14
*2537 FILLER_38_21
*2538 FILLER_38_28
*2539 FILLER_38_35
*2540 FILLER_38_42
*2541 FILLER_38_49
*2542 FILLER_38_56
*2543 FILLER_38_63
*2544 FILLER_38_7
*2545 FILLER_38_70
*2546 FILLER_38_77
*2547 FILLER_38_84
*2548 FILLER_38_965
*2549 FILLER_38_972
*2550 FILLER_38_979
*2551 FILLER_38_986
*2552 FILLER_38_993
*2553 FILLER_39_0
*2554 FILLER_39_1000
*2555 FILLER_39_1007
*2556 FILLER_39_1014
*2557 FILLER_39_1021
*2558 FILLER_39_1028
*2559 FILLER_39_1035
*2560 FILLER_39_1042
*2561 FILLER_39_1049
*2562 FILLER_39_1051
*2563 FILLER_39_14
*2564 FILLER_39_21
*2565 FILLER_39_28
*2566 FILLER_39_35
*2567 FILLER_39_42
*2568 FILLER_39_49
*2569 FILLER_39_56
*2570 FILLER_39_63
*2571 FILLER_39_7
*2572 FILLER_39_70
*2573 FILLER_39_77
*2574 FILLER_39_84
*2575 FILLER_39_965
*2576 FILLER_39_972
*2577 FILLER_39_979
*2578 FILLER_39_986
*2579 FILLER_39_993
*2580 FILLER_3_0
*2581 FILLER_3_1000
*2582 FILLER_3_1007
*2583 FILLER_3_1014
*2584 FILLER_3_1021
*2585 FILLER_3_1028
*2586 FILLER_3_1035
*2587 FILLER_3_1042
*2588 FILLER_3_1049
*2589 FILLER_3_105
*2590 FILLER_3_1051
*2591 FILLER_3_112
*2592 FILLER_3_119
*2593 FILLER_3_126
*2594 FILLER_3_133
*2595 FILLER_3_14
*2596 FILLER_3_140
*2597 FILLER_3_147
*2598 FILLER_3_154
*2599 FILLER_3_161
*2600 FILLER_3_168
*2601 FILLER_3_175
*2602 FILLER_3_182
*2603 FILLER_3_189
*2604 FILLER_3_196
*2605 FILLER_3_203
*2606 FILLER_3_21
*2607 FILLER_3_210
*2608 FILLER_3_217
*2609 FILLER_3_224
*2610 FILLER_3_231
*2611 FILLER_3_238
*2612 FILLER_3_245
*2613 FILLER_3_252
*2614 FILLER_3_259
*2615 FILLER_3_266
*2616 FILLER_3_273
*2617 FILLER_3_28
*2618 FILLER_3_280
*2619 FILLER_3_287
*2620 FILLER_3_294
*2621 FILLER_3_301
*2622 FILLER_3_308
*2623 FILLER_3_315
*2624 FILLER_3_322
*2625 FILLER_3_329
*2626 FILLER_3_336
*2627 FILLER_3_343
*2628 FILLER_3_35
*2629 FILLER_3_350
*2630 FILLER_3_357
*2631 FILLER_3_364
*2632 FILLER_3_371
*2633 FILLER_3_378
*2634 FILLER_3_385
*2635 FILLER_3_392
*2636 FILLER_3_399
*2637 FILLER_3_406
*2638 FILLER_3_413
*2639 FILLER_3_42
*2640 FILLER_3_420
*2641 FILLER_3_427
*2642 FILLER_3_434
*2643 FILLER_3_441
*2644 FILLER_3_448
*2645 FILLER_3_455
*2646 FILLER_3_462
*2647 FILLER_3_469
*2648 FILLER_3_476
*2649 FILLER_3_483
*2650 FILLER_3_49
*2651 FILLER_3_490
*2652 FILLER_3_497
*2653 FILLER_3_504
*2654 FILLER_3_511
*2655 FILLER_3_517
*2656 FILLER_3_524
*2657 FILLER_3_531
*2658 FILLER_3_538
*2659 FILLER_3_545
*2660 FILLER_3_552
*2661 FILLER_3_559
*2662 FILLER_3_56
*2663 FILLER_3_566
*2664 FILLER_3_573
*2665 FILLER_3_580
*2666 FILLER_3_587
*2667 FILLER_3_594
*2668 FILLER_3_601
*2669 FILLER_3_608
*2670 FILLER_3_615
*2671 FILLER_3_622
*2672 FILLER_3_629
*2673 FILLER_3_63
*2674 FILLER_3_636
*2675 FILLER_3_643
*2676 FILLER_3_650
*2677 FILLER_3_657
*2678 FILLER_3_664
*2679 FILLER_3_671
*2680 FILLER_3_678
*2681 FILLER_3_685
*2682 FILLER_3_692
*2683 FILLER_3_699
*2684 FILLER_3_7
*2685 FILLER_3_70
*2686 FILLER_3_706
*2687 FILLER_3_713
*2688 FILLER_3_720
*2689 FILLER_3_727
*2690 FILLER_3_734
*2691 FILLER_3_741
*2692 FILLER_3_748
*2693 FILLER_3_755
*2694 FILLER_3_762
*2695 FILLER_3_769
*2696 FILLER_3_77
*2697 FILLER_3_776
*2698 FILLER_3_783
*2699 FILLER_3_790
*2700 FILLER_3_797
*2701 FILLER_3_804
*2702 FILLER_3_811
*2703 FILLER_3_818
*2704 FILLER_3_825
*2705 FILLER_3_832
*2706 FILLER_3_839
*2707 FILLER_3_84
*2708 FILLER_3_846
*2709 FILLER_3_853
*2710 FILLER_3_860
*2711 FILLER_3_867
*2712 FILLER_3_874
*2713 FILLER_3_881
*2714 FILLER_3_888
*2715 FILLER_3_895
*2716 FILLER_3_902
*2717 FILLER_3_909
*2718 FILLER_3_91
*2719 FILLER_3_916
*2720 FILLER_3_923
*2721 FILLER_3_930
*2722 FILLER_3_937
*2723 FILLER_3_944
*2724 FILLER_3_951
*2725 FILLER_3_958
*2726 FILLER_3_965
*2727 FILLER_3_972
*2728 FILLER_3_979
*2729 FILLER_3_98
*2730 FILLER_3_986
*2731 FILLER_3_993
*2732 FILLER_40_0
*2733 FILLER_40_1000
*2734 FILLER_40_1007
*2735 FILLER_40_1014
*2736 FILLER_40_1021
*2737 FILLER_40_1028
*2738 FILLER_40_1035
*2739 FILLER_40_1042
*2740 FILLER_40_1049
*2741 FILLER_40_1051
*2742 FILLER_40_14
*2743 FILLER_40_21
*2744 FILLER_40_28
*2745 FILLER_40_35
*2746 FILLER_40_42
*2747 FILLER_40_49
*2748 FILLER_40_56
*2749 FILLER_40_63
*2750 FILLER_40_7
*2751 FILLER_40_70
*2752 FILLER_40_77
*2753 FILLER_40_84
*2754 FILLER_40_965
*2755 FILLER_40_972
*2756 FILLER_40_979
*2757 FILLER_40_986
*2758 FILLER_40_993
*2759 FILLER_41_0
*2760 FILLER_41_1000
*2761 FILLER_41_1007
*2762 FILLER_41_1014
*2763 FILLER_41_1021
*2764 FILLER_41_1028
*2765 FILLER_41_1035
*2766 FILLER_41_1042
*2767 FILLER_41_1049
*2768 FILLER_41_1051
*2769 FILLER_41_14
*2770 FILLER_41_21
*2771 FILLER_41_28
*2772 FILLER_41_35
*2773 FILLER_41_42
*2774 FILLER_41_49
*2775 FILLER_41_56
*2776 FILLER_41_63
*2777 FILLER_41_7
*2778 FILLER_41_70
*2779 FILLER_41_77
*2780 FILLER_41_84
*2781 FILLER_41_965
*2782 FILLER_41_972
*2783 FILLER_41_979
*2784 FILLER_41_986
*2785 FILLER_41_993
*2786 FILLER_42_0
*2787 FILLER_42_1000
*2788 FILLER_42_1007
*2789 FILLER_42_1014
*2790 FILLER_42_1021
*2791 FILLER_42_1028
*2792 FILLER_42_1035
*2793 FILLER_42_1042
*2794 FILLER_42_1049
*2795 FILLER_42_1051
*2796 FILLER_42_14
*2797 FILLER_42_21
*2798 FILLER_42_28
*2799 FILLER_42_35
*2800 FILLER_42_42
*2801 FILLER_42_49
*2802 FILLER_42_56
*2803 FILLER_42_63
*2804 FILLER_42_7
*2805 FILLER_42_70
*2806 FILLER_42_77
*2807 FILLER_42_84
*2808 FILLER_42_965
*2809 FILLER_42_972
*2810 FILLER_42_979
*2811 FILLER_42_986
*2812 FILLER_42_993
*2813 FILLER_43_0
*2814 FILLER_43_1000
*2815 FILLER_43_1007
*2816 FILLER_43_1014
*2817 FILLER_43_1021
*2818 FILLER_43_1028
*2819 FILLER_43_1035
*2820 FILLER_43_1042
*2821 FILLER_43_1049
*2822 FILLER_43_1051
*2823 FILLER_43_14
*2824 FILLER_43_21
*2825 FILLER_43_28
*2826 FILLER_43_35
*2827 FILLER_43_42
*2828 FILLER_43_49
*2829 FILLER_43_56
*2830 FILLER_43_63
*2831 FILLER_43_7
*2832 FILLER_43_70
*2833 FILLER_43_77
*2834 FILLER_43_84
*2835 FILLER_43_965
*2836 FILLER_43_972
*2837 FILLER_43_979
*2838 FILLER_43_986
*2839 FILLER_43_993
*2840 FILLER_44_0
*2841 FILLER_44_1000
*2842 FILLER_44_1007
*2843 FILLER_44_1014
*2844 FILLER_44_1021
*2845 FILLER_44_1028
*2846 FILLER_44_1035
*2847 FILLER_44_1042
*2848 FILLER_44_1049
*2849 FILLER_44_1051
*2850 FILLER_44_14
*2851 FILLER_44_21
*2852 FILLER_44_28
*2853 FILLER_44_35
*2854 FILLER_44_42
*2855 FILLER_44_49
*2856 FILLER_44_56
*2857 FILLER_44_63
*2858 FILLER_44_7
*2859 FILLER_44_70
*2860 FILLER_44_77
*2861 FILLER_44_84
*2862 FILLER_44_965
*2863 FILLER_44_972
*2864 FILLER_44_979
*2865 FILLER_44_986
*2866 FILLER_44_993
*2867 FILLER_45_0
*2868 FILLER_45_1000
*2869 FILLER_45_1007
*2870 FILLER_45_1014
*2871 FILLER_45_1021
*2872 FILLER_45_1028
*2873 FILLER_45_1035
*2874 FILLER_45_1042
*2875 FILLER_45_1049
*2876 FILLER_45_1051
*2877 FILLER_45_14
*2878 FILLER_45_21
*2879 FILLER_45_28
*2880 FILLER_45_35
*2881 FILLER_45_42
*2882 FILLER_45_49
*2883 FILLER_45_56
*2884 FILLER_45_63
*2885 FILLER_45_7
*2886 FILLER_45_70
*2887 FILLER_45_77
*2888 FILLER_45_84
*2889 FILLER_45_965
*2890 FILLER_45_972
*2891 FILLER_45_979
*2892 FILLER_45_986
*2893 FILLER_45_993
*2894 FILLER_46_0
*2895 FILLER_46_1000
*2896 FILLER_46_1007
*2897 FILLER_46_1014
*2898 FILLER_46_1021
*2899 FILLER_46_1028
*2900 FILLER_46_1035
*2901 FILLER_46_1042
*2902 FILLER_46_1049
*2903 FILLER_46_1051
*2904 FILLER_46_14
*2905 FILLER_46_21
*2906 FILLER_46_28
*2907 FILLER_46_35
*2908 FILLER_46_42
*2909 FILLER_46_49
*2910 FILLER_46_56
*2911 FILLER_46_63
*2912 FILLER_46_7
*2913 FILLER_46_70
*2914 FILLER_46_77
*2915 FILLER_46_84
*2916 FILLER_46_965
*2917 FILLER_46_972
*2918 FILLER_46_979
*2919 FILLER_46_986
*2920 FILLER_46_993
*2921 FILLER_47_0
*2922 FILLER_47_1000
*2923 FILLER_47_1007
*2924 FILLER_47_1014
*2925 FILLER_47_1021
*2926 FILLER_47_1028
*2927 FILLER_47_1035
*2928 FILLER_47_1042
*2929 FILLER_47_1049
*2930 FILLER_47_1051
*2931 FILLER_47_14
*2932 FILLER_47_21
*2933 FILLER_47_28
*2934 FILLER_47_35
*2935 FILLER_47_42
*2936 FILLER_47_49
*2937 FILLER_47_56
*2938 FILLER_47_63
*2939 FILLER_47_7
*2940 FILLER_47_70
*2941 FILLER_47_77
*2942 FILLER_47_84
*2943 FILLER_47_965
*2944 FILLER_47_972
*2945 FILLER_47_979
*2946 FILLER_47_986
*2947 FILLER_47_993
*2948 FILLER_48_0
*2949 FILLER_48_1000
*2950 FILLER_48_1007
*2951 FILLER_48_1014
*2952 FILLER_48_1021
*2953 FILLER_48_1028
*2954 FILLER_48_1035
*2955 FILLER_48_1042
*2956 FILLER_48_1049
*2957 FILLER_48_1051
*2958 FILLER_48_14
*2959 FILLER_48_21
*2960 FILLER_48_28
*2961 FILLER_48_35
*2962 FILLER_48_42
*2963 FILLER_48_49
*2964 FILLER_48_56
*2965 FILLER_48_63
*2966 FILLER_48_7
*2967 FILLER_48_70
*2968 FILLER_48_77
*2969 FILLER_48_84
*2970 FILLER_48_965
*2971 FILLER_48_972
*2972 FILLER_48_979
*2973 FILLER_48_986
*2974 FILLER_48_993
*2975 FILLER_49_0
*2976 FILLER_49_1000
*2977 FILLER_49_1007
*2978 FILLER_49_1014
*2979 FILLER_49_1021
*2980 FILLER_49_1028
*2981 FILLER_49_1035
*2982 FILLER_49_1042
*2983 FILLER_49_1049
*2984 FILLER_49_1051
*2985 FILLER_49_14
*2986 FILLER_49_21
*2987 FILLER_49_28
*2988 FILLER_49_35
*2989 FILLER_49_42
*2990 FILLER_49_49
*2991 FILLER_49_56
*2992 FILLER_49_63
*2993 FILLER_49_7
*2994 FILLER_49_70
*2995 FILLER_49_77
*2996 FILLER_49_84
*2997 FILLER_49_965
*2998 FILLER_49_972
*2999 FILLER_49_979
*3000 FILLER_49_986
*3001 FILLER_49_993
*3002 FILLER_4_0
*3003 FILLER_4_1001
*3004 FILLER_4_1008
*3005 FILLER_4_1015
*3006 FILLER_4_1022
*3007 FILLER_4_1029
*3008 FILLER_4_1036
*3009 FILLER_4_1043
*3010 FILLER_4_105
*3011 FILLER_4_1050
*3012 FILLER_4_112
*3013 FILLER_4_119
*3014 FILLER_4_126
*3015 FILLER_4_133
*3016 FILLER_4_14
*3017 FILLER_4_140
*3018 FILLER_4_147
*3019 FILLER_4_154
*3020 FILLER_4_161
*3021 FILLER_4_168
*3022 FILLER_4_175
*3023 FILLER_4_182
*3024 FILLER_4_189
*3025 FILLER_4_196
*3026 FILLER_4_203
*3027 FILLER_4_21
*3028 FILLER_4_210
*3029 FILLER_4_217
*3030 FILLER_4_224
*3031 FILLER_4_231
*3032 FILLER_4_238
*3033 FILLER_4_245
*3034 FILLER_4_252
*3035 FILLER_4_259
*3036 FILLER_4_266
*3037 FILLER_4_273
*3038 FILLER_4_28
*3039 FILLER_4_280
*3040 FILLER_4_287
*3041 FILLER_4_294
*3042 FILLER_4_301
*3043 FILLER_4_308
*3044 FILLER_4_315
*3045 FILLER_4_322
*3046 FILLER_4_329
*3047 FILLER_4_336
*3048 FILLER_4_343
*3049 FILLER_4_35
*3050 FILLER_4_350
*3051 FILLER_4_357
*3052 FILLER_4_364
*3053 FILLER_4_371
*3054 FILLER_4_378
*3055 FILLER_4_385
*3056 FILLER_4_392
*3057 FILLER_4_399
*3058 FILLER_4_406
*3059 FILLER_4_413
*3060 FILLER_4_42
*3061 FILLER_4_420
*3062 FILLER_4_427
*3063 FILLER_4_434
*3064 FILLER_4_441
*3065 FILLER_4_448
*3066 FILLER_4_455
*3067 FILLER_4_462
*3068 FILLER_4_469
*3069 FILLER_4_476
*3070 FILLER_4_483
*3071 FILLER_4_49
*3072 FILLER_4_490
*3073 FILLER_4_497
*3074 FILLER_4_504
*3075 FILLER_4_511
*3076 FILLER_4_518
*3077 FILLER_4_525
*3078 FILLER_4_532
*3079 FILLER_4_539
*3080 FILLER_4_546
*3081 FILLER_4_553
*3082 FILLER_4_56
*3083 FILLER_4_560
*3084 FILLER_4_567
*3085 FILLER_4_574
*3086 FILLER_4_581
*3087 FILLER_4_588
*3088 FILLER_4_595
*3089 FILLER_4_602
*3090 FILLER_4_609
*3091 FILLER_4_616
*3092 FILLER_4_623
*3093 FILLER_4_63
*3094 FILLER_4_630
*3095 FILLER_4_637
*3096 FILLER_4_644
*3097 FILLER_4_651
*3098 FILLER_4_658
*3099 FILLER_4_665
*3100 FILLER_4_672
*3101 FILLER_4_679
*3102 FILLER_4_686
*3103 FILLER_4_693
*3104 FILLER_4_7
*3105 FILLER_4_70
*3106 FILLER_4_700
*3107 FILLER_4_707
*3108 FILLER_4_714
*3109 FILLER_4_721
*3110 FILLER_4_728
*3111 FILLER_4_735
*3112 FILLER_4_742
*3113 FILLER_4_749
*3114 FILLER_4_756
*3115 FILLER_4_763
*3116 FILLER_4_77
*3117 FILLER_4_770
*3118 FILLER_4_777
*3119 FILLER_4_784
*3120 FILLER_4_791
*3121 FILLER_4_798
*3122 FILLER_4_805
*3123 FILLER_4_812
*3124 FILLER_4_819
*3125 FILLER_4_826
*3126 FILLER_4_833
*3127 FILLER_4_84
*3128 FILLER_4_840
*3129 FILLER_4_847
*3130 FILLER_4_854
*3131 FILLER_4_861
*3132 FILLER_4_868
*3133 FILLER_4_875
*3134 FILLER_4_882
*3135 FILLER_4_889
*3136 FILLER_4_896
*3137 FILLER_4_903
*3138 FILLER_4_91
*3139 FILLER_4_910
*3140 FILLER_4_917
*3141 FILLER_4_924
*3142 FILLER_4_931
*3143 FILLER_4_938
*3144 FILLER_4_945
*3145 FILLER_4_952
*3146 FILLER_4_959
*3147 FILLER_4_966
*3148 FILLER_4_973
*3149 FILLER_4_98
*3150 FILLER_4_980
*3151 FILLER_4_987
*3152 FILLER_4_994
*3153 FILLER_50_0
*3154 FILLER_50_1000
*3155 FILLER_50_1007
*3156 FILLER_50_1014
*3157 FILLER_50_1021
*3158 FILLER_50_1028
*3159 FILLER_50_1035
*3160 FILLER_50_1042
*3161 FILLER_50_1049
*3162 FILLER_50_1051
*3163 FILLER_50_14
*3164 FILLER_50_21
*3165 FILLER_50_28
*3166 FILLER_50_35
*3167 FILLER_50_42
*3168 FILLER_50_49
*3169 FILLER_50_56
*3170 FILLER_50_63
*3171 FILLER_50_7
*3172 FILLER_50_70
*3173 FILLER_50_77
*3174 FILLER_50_84
*3175 FILLER_50_965
*3176 FILLER_50_972
*3177 FILLER_50_979
*3178 FILLER_50_986
*3179 FILLER_50_993
*3180 FILLER_51_0
*3181 FILLER_51_1000
*3182 FILLER_51_1007
*3183 FILLER_51_1014
*3184 FILLER_51_1021
*3185 FILLER_51_1028
*3186 FILLER_51_1035
*3187 FILLER_51_1042
*3188 FILLER_51_1049
*3189 FILLER_51_1051
*3190 FILLER_51_14
*3191 FILLER_51_21
*3192 FILLER_51_28
*3193 FILLER_51_35
*3194 FILLER_51_42
*3195 FILLER_51_49
*3196 FILLER_51_56
*3197 FILLER_51_63
*3198 FILLER_51_7
*3199 FILLER_51_70
*3200 FILLER_51_77
*3201 FILLER_51_84
*3202 FILLER_51_965
*3203 FILLER_51_972
*3204 FILLER_51_979
*3205 FILLER_51_986
*3206 FILLER_51_993
*3207 FILLER_52_0
*3208 FILLER_52_1000
*3209 FILLER_52_1007
*3210 FILLER_52_1014
*3211 FILLER_52_1021
*3212 FILLER_52_1028
*3213 FILLER_52_1035
*3214 FILLER_52_1042
*3215 FILLER_52_1049
*3216 FILLER_52_1051
*3217 FILLER_52_14
*3218 FILLER_52_21
*3219 FILLER_52_28
*3220 FILLER_52_35
*3221 FILLER_52_42
*3222 FILLER_52_49
*3223 FILLER_52_56
*3224 FILLER_52_63
*3225 FILLER_52_7
*3226 FILLER_52_70
*3227 FILLER_52_77
*3228 FILLER_52_84
*3229 FILLER_52_965
*3230 FILLER_52_972
*3231 FILLER_52_979
*3232 FILLER_52_986
*3233 FILLER_52_993
*3234 FILLER_53_0
*3235 FILLER_53_1000
*3236 FILLER_53_1007
*3237 FILLER_53_1014
*3238 FILLER_53_1021
*3239 FILLER_53_1028
*3240 FILLER_53_1035
*3241 FILLER_53_1042
*3242 FILLER_53_1049
*3243 FILLER_53_1051
*3244 FILLER_53_14
*3245 FILLER_53_21
*3246 FILLER_53_28
*3247 FILLER_53_35
*3248 FILLER_53_42
*3249 FILLER_53_49
*3250 FILLER_53_56
*3251 FILLER_53_63
*3252 FILLER_53_7
*3253 FILLER_53_70
*3254 FILLER_53_77
*3255 FILLER_53_84
*3256 FILLER_53_965
*3257 FILLER_53_972
*3258 FILLER_53_979
*3259 FILLER_53_986
*3260 FILLER_53_993
*3261 FILLER_54_0
*3262 FILLER_54_1000
*3263 FILLER_54_1007
*3264 FILLER_54_1014
*3265 FILLER_54_1021
*3266 FILLER_54_1028
*3267 FILLER_54_1035
*3268 FILLER_54_1042
*3269 FILLER_54_1049
*3270 FILLER_54_1051
*3271 FILLER_54_14
*3272 FILLER_54_21
*3273 FILLER_54_28
*3274 FILLER_54_35
*3275 FILLER_54_42
*3276 FILLER_54_49
*3277 FILLER_54_56
*3278 FILLER_54_63
*3279 FILLER_54_7
*3280 FILLER_54_70
*3281 FILLER_54_77
*3282 FILLER_54_84
*3283 FILLER_54_965
*3284 FILLER_54_972
*3285 FILLER_54_979
*3286 FILLER_54_986
*3287 FILLER_54_993
*3288 FILLER_55_0
*3289 FILLER_55_1000
*3290 FILLER_55_1007
*3291 FILLER_55_1014
*3292 FILLER_55_1021
*3293 FILLER_55_1028
*3294 FILLER_55_1035
*3295 FILLER_55_1042
*3296 FILLER_55_1049
*3297 FILLER_55_1051
*3298 FILLER_55_14
*3299 FILLER_55_21
*3300 FILLER_55_28
*3301 FILLER_55_35
*3302 FILLER_55_42
*3303 FILLER_55_49
*3304 FILLER_55_56
*3305 FILLER_55_63
*3306 FILLER_55_7
*3307 FILLER_55_70
*3308 FILLER_55_77
*3309 FILLER_55_84
*3310 FILLER_55_965
*3311 FILLER_55_972
*3312 FILLER_55_979
*3313 FILLER_55_986
*3314 FILLER_55_993
*3315 FILLER_56_0
*3316 FILLER_56_1000
*3317 FILLER_56_1007
*3318 FILLER_56_1014
*3319 FILLER_56_1021
*3320 FILLER_56_1028
*3321 FILLER_56_1035
*3322 FILLER_56_1042
*3323 FILLER_56_1049
*3324 FILLER_56_1051
*3325 FILLER_56_14
*3326 FILLER_56_21
*3327 FILLER_56_28
*3328 FILLER_56_35
*3329 FILLER_56_42
*3330 FILLER_56_49
*3331 FILLER_56_56
*3332 FILLER_56_63
*3333 FILLER_56_7
*3334 FILLER_56_70
*3335 FILLER_56_77
*3336 FILLER_56_84
*3337 FILLER_56_965
*3338 FILLER_56_972
*3339 FILLER_56_979
*3340 FILLER_56_986
*3341 FILLER_56_993
*3342 FILLER_57_0
*3343 FILLER_57_1000
*3344 FILLER_57_1007
*3345 FILLER_57_1014
*3346 FILLER_57_1021
*3347 FILLER_57_1028
*3348 FILLER_57_1035
*3349 FILLER_57_1042
*3350 FILLER_57_1049
*3351 FILLER_57_1051
*3352 FILLER_57_14
*3353 FILLER_57_21
*3354 FILLER_57_28
*3355 FILLER_57_35
*3356 FILLER_57_42
*3357 FILLER_57_49
*3358 FILLER_57_56
*3359 FILLER_57_63
*3360 FILLER_57_7
*3361 FILLER_57_70
*3362 FILLER_57_77
*3363 FILLER_57_84
*3364 FILLER_57_965
*3365 FILLER_57_972
*3366 FILLER_57_979
*3367 FILLER_57_986
*3368 FILLER_57_993
*3369 FILLER_58_0
*3370 FILLER_58_1000
*3371 FILLER_58_1007
*3372 FILLER_58_1014
*3373 FILLER_58_1021
*3374 FILLER_58_1028
*3375 FILLER_58_1035
*3376 FILLER_58_1042
*3377 FILLER_58_1049
*3378 FILLER_58_1051
*3379 FILLER_58_14
*3380 FILLER_58_21
*3381 FILLER_58_28
*3382 FILLER_58_35
*3383 FILLER_58_42
*3384 FILLER_58_49
*3385 FILLER_58_56
*3386 FILLER_58_63
*3387 FILLER_58_7
*3388 FILLER_58_70
*3389 FILLER_58_77
*3390 FILLER_58_84
*3391 FILLER_58_965
*3392 FILLER_58_972
*3393 FILLER_58_979
*3394 FILLER_58_986
*3395 FILLER_58_993
*3396 FILLER_59_0
*3397 FILLER_59_1000
*3398 FILLER_59_1007
*3399 FILLER_59_1014
*3400 FILLER_59_1021
*3401 FILLER_59_1028
*3402 FILLER_59_1035
*3403 FILLER_59_1042
*3404 FILLER_59_1049
*3405 FILLER_59_1051
*3406 FILLER_59_14
*3407 FILLER_59_21
*3408 FILLER_59_28
*3409 FILLER_59_35
*3410 FILLER_59_42
*3411 FILLER_59_49
*3412 FILLER_59_56
*3413 FILLER_59_63
*3414 FILLER_59_7
*3415 FILLER_59_70
*3416 FILLER_59_77
*3417 FILLER_59_84
*3418 FILLER_59_965
*3419 FILLER_59_972
*3420 FILLER_59_979
*3421 FILLER_59_986
*3422 FILLER_59_993
*3423 FILLER_5_0
*3424 FILLER_5_1006
*3425 FILLER_5_1013
*3426 FILLER_5_1020
*3427 FILLER_5_1027
*3428 FILLER_5_1034
*3429 FILLER_5_1041
*3430 FILLER_5_1048
*3431 FILLER_5_105
*3432 FILLER_5_112
*3433 FILLER_5_119
*3434 FILLER_5_126
*3435 FILLER_5_133
*3436 FILLER_5_14
*3437 FILLER_5_140
*3438 FILLER_5_147
*3439 FILLER_5_154
*3440 FILLER_5_161
*3441 FILLER_5_168
*3442 FILLER_5_175
*3443 FILLER_5_182
*3444 FILLER_5_189
*3445 FILLER_5_196
*3446 FILLER_5_203
*3447 FILLER_5_21
*3448 FILLER_5_210
*3449 FILLER_5_217
*3450 FILLER_5_224
*3451 FILLER_5_231
*3452 FILLER_5_238
*3453 FILLER_5_245
*3454 FILLER_5_252
*3455 FILLER_5_259
*3456 FILLER_5_266
*3457 FILLER_5_273
*3458 FILLER_5_28
*3459 FILLER_5_280
*3460 FILLER_5_287
*3461 FILLER_5_294
*3462 FILLER_5_301
*3463 FILLER_5_308
*3464 FILLER_5_315
*3465 FILLER_5_322
*3466 FILLER_5_329
*3467 FILLER_5_336
*3468 FILLER_5_343
*3469 FILLER_5_35
*3470 FILLER_5_350
*3471 FILLER_5_357
*3472 FILLER_5_364
*3473 FILLER_5_371
*3474 FILLER_5_378
*3475 FILLER_5_385
*3476 FILLER_5_392
*3477 FILLER_5_399
*3478 FILLER_5_406
*3479 FILLER_5_413
*3480 FILLER_5_42
*3481 FILLER_5_420
*3482 FILLER_5_427
*3483 FILLER_5_434
*3484 FILLER_5_441
*3485 FILLER_5_448
*3486 FILLER_5_455
*3487 FILLER_5_462
*3488 FILLER_5_469
*3489 FILLER_5_476
*3490 FILLER_5_483
*3491 FILLER_5_49
*3492 FILLER_5_490
*3493 FILLER_5_497
*3494 FILLER_5_504
*3495 FILLER_5_508
*3496 FILLER_5_516
*3497 FILLER_5_523
*3498 FILLER_5_530
*3499 FILLER_5_537
*3500 FILLER_5_544
*3501 FILLER_5_551
*3502 FILLER_5_558
*3503 FILLER_5_56
*3504 FILLER_5_565
*3505 FILLER_5_572
*3506 FILLER_5_579
*3507 FILLER_5_586
*3508 FILLER_5_593
*3509 FILLER_5_600
*3510 FILLER_5_607
*3511 FILLER_5_614
*3512 FILLER_5_621
*3513 FILLER_5_628
*3514 FILLER_5_63
*3515 FILLER_5_635
*3516 FILLER_5_642
*3517 FILLER_5_649
*3518 FILLER_5_656
*3519 FILLER_5_663
*3520 FILLER_5_670
*3521 FILLER_5_677
*3522 FILLER_5_684
*3523 FILLER_5_691
*3524 FILLER_5_698
*3525 FILLER_5_7
*3526 FILLER_5_70
*3527 FILLER_5_705
*3528 FILLER_5_712
*3529 FILLER_5_719
*3530 FILLER_5_726
*3531 FILLER_5_733
*3532 FILLER_5_740
*3533 FILLER_5_747
*3534 FILLER_5_754
*3535 FILLER_5_761
*3536 FILLER_5_768
*3537 FILLER_5_77
*3538 FILLER_5_775
*3539 FILLER_5_782
*3540 FILLER_5_789
*3541 FILLER_5_796
*3542 FILLER_5_803
*3543 FILLER_5_810
*3544 FILLER_5_817
*3545 FILLER_5_824
*3546 FILLER_5_831
*3547 FILLER_5_838
*3548 FILLER_5_84
*3549 FILLER_5_845
*3550 FILLER_5_852
*3551 FILLER_5_859
*3552 FILLER_5_866
*3553 FILLER_5_873
*3554 FILLER_5_880
*3555 FILLER_5_887
*3556 FILLER_5_894
*3557 FILLER_5_901
*3558 FILLER_5_908
*3559 FILLER_5_91
*3560 FILLER_5_915
*3561 FILLER_5_922
*3562 FILLER_5_929
*3563 FILLER_5_936
*3564 FILLER_5_943
*3565 FILLER_5_950
*3566 FILLER_5_957
*3567 FILLER_5_964
*3568 FILLER_5_971
*3569 FILLER_5_978
*3570 FILLER_5_98
*3571 FILLER_5_985
*3572 FILLER_5_992
*3573 FILLER_5_999
*3574 FILLER_60_0
*3575 FILLER_60_1000
*3576 FILLER_60_1007
*3577 FILLER_60_1014
*3578 FILLER_60_1021
*3579 FILLER_60_1028
*3580 FILLER_60_1035
*3581 FILLER_60_1042
*3582 FILLER_60_1049
*3583 FILLER_60_1051
*3584 FILLER_60_14
*3585 FILLER_60_21
*3586 FILLER_60_28
*3587 FILLER_60_35
*3588 FILLER_60_42
*3589 FILLER_60_49
*3590 FILLER_60_56
*3591 FILLER_60_63
*3592 FILLER_60_7
*3593 FILLER_60_70
*3594 FILLER_60_77
*3595 FILLER_60_84
*3596 FILLER_60_965
*3597 FILLER_60_972
*3598 FILLER_60_979
*3599 FILLER_60_986
*3600 FILLER_60_993
*3601 FILLER_61_0
*3602 FILLER_61_1000
*3603 FILLER_61_1007
*3604 FILLER_61_1014
*3605 FILLER_61_1021
*3606 FILLER_61_1028
*3607 FILLER_61_1035
*3608 FILLER_61_1042
*3609 FILLER_61_1049
*3610 FILLER_61_1051
*3611 FILLER_61_14
*3612 FILLER_61_21
*3613 FILLER_61_28
*3614 FILLER_61_35
*3615 FILLER_61_42
*3616 FILLER_61_49
*3617 FILLER_61_56
*3618 FILLER_61_63
*3619 FILLER_61_7
*3620 FILLER_61_70
*3621 FILLER_61_77
*3622 FILLER_61_84
*3623 FILLER_61_965
*3624 FILLER_61_972
*3625 FILLER_61_979
*3626 FILLER_61_986
*3627 FILLER_61_993
*3628 FILLER_62_0
*3629 FILLER_62_1000
*3630 FILLER_62_1007
*3631 FILLER_62_1014
*3632 FILLER_62_1021
*3633 FILLER_62_1028
*3634 FILLER_62_1035
*3635 FILLER_62_1042
*3636 FILLER_62_1049
*3637 FILLER_62_1051
*3638 FILLER_62_14
*3639 FILLER_62_21
*3640 FILLER_62_28
*3641 FILLER_62_35
*3642 FILLER_62_42
*3643 FILLER_62_49
*3644 FILLER_62_56
*3645 FILLER_62_63
*3646 FILLER_62_7
*3647 FILLER_62_70
*3648 FILLER_62_77
*3649 FILLER_62_84
*3650 FILLER_62_965
*3651 FILLER_62_972
*3652 FILLER_62_979
*3653 FILLER_62_986
*3654 FILLER_62_993
*3655 FILLER_63_0
*3656 FILLER_63_1000
*3657 FILLER_63_1007
*3658 FILLER_63_1014
*3659 FILLER_63_1021
*3660 FILLER_63_1028
*3661 FILLER_63_1035
*3662 FILLER_63_1042
*3663 FILLER_63_1049
*3664 FILLER_63_1051
*3665 FILLER_63_14
*3666 FILLER_63_21
*3667 FILLER_63_28
*3668 FILLER_63_35
*3669 FILLER_63_42
*3670 FILLER_63_49
*3671 FILLER_63_56
*3672 FILLER_63_63
*3673 FILLER_63_7
*3674 FILLER_63_70
*3675 FILLER_63_77
*3676 FILLER_63_84
*3677 FILLER_63_965
*3678 FILLER_63_972
*3679 FILLER_63_979
*3680 FILLER_63_986
*3681 FILLER_63_993
*3682 FILLER_64_0
*3683 FILLER_64_1000
*3684 FILLER_64_1007
*3685 FILLER_64_1014
*3686 FILLER_64_1021
*3687 FILLER_64_1028
*3688 FILLER_64_1035
*3689 FILLER_64_1042
*3690 FILLER_64_1049
*3691 FILLER_64_1051
*3692 FILLER_64_14
*3693 FILLER_64_21
*3694 FILLER_64_28
*3695 FILLER_64_35
*3696 FILLER_64_42
*3697 FILLER_64_49
*3698 FILLER_64_56
*3699 FILLER_64_63
*3700 FILLER_64_7
*3701 FILLER_64_70
*3702 FILLER_64_77
*3703 FILLER_64_84
*3704 FILLER_64_965
*3705 FILLER_64_972
*3706 FILLER_64_979
*3707 FILLER_64_986
*3708 FILLER_64_993
*3709 FILLER_65_0
*3710 FILLER_65_1000
*3711 FILLER_65_1007
*3712 FILLER_65_1014
*3713 FILLER_65_1021
*3714 FILLER_65_1028
*3715 FILLER_65_1035
*3716 FILLER_65_1042
*3717 FILLER_65_1049
*3718 FILLER_65_1051
*3719 FILLER_65_14
*3720 FILLER_65_21
*3721 FILLER_65_28
*3722 FILLER_65_35
*3723 FILLER_65_42
*3724 FILLER_65_49
*3725 FILLER_65_56
*3726 FILLER_65_63
*3727 FILLER_65_7
*3728 FILLER_65_70
*3729 FILLER_65_77
*3730 FILLER_65_84
*3731 FILLER_65_965
*3732 FILLER_65_972
*3733 FILLER_65_979
*3734 FILLER_65_986
*3735 FILLER_65_993
*3736 FILLER_66_0
*3737 FILLER_66_1000
*3738 FILLER_66_1007
*3739 FILLER_66_1014
*3740 FILLER_66_1021
*3741 FILLER_66_1028
*3742 FILLER_66_1035
*3743 FILLER_66_1042
*3744 FILLER_66_1049
*3745 FILLER_66_1051
*3746 FILLER_66_14
*3747 FILLER_66_21
*3748 FILLER_66_28
*3749 FILLER_66_35
*3750 FILLER_66_42
*3751 FILLER_66_49
*3752 FILLER_66_56
*3753 FILLER_66_63
*3754 FILLER_66_7
*3755 FILLER_66_70
*3756 FILLER_66_77
*3757 FILLER_66_84
*3758 FILLER_66_965
*3759 FILLER_66_972
*3760 FILLER_66_979
*3761 FILLER_66_986
*3762 FILLER_66_993
*3763 FILLER_67_0
*3764 FILLER_67_1000
*3765 FILLER_67_1007
*3766 FILLER_67_1014
*3767 FILLER_67_1021
*3768 FILLER_67_1028
*3769 FILLER_67_1035
*3770 FILLER_67_1042
*3771 FILLER_67_1049
*3772 FILLER_67_1051
*3773 FILLER_67_14
*3774 FILLER_67_21
*3775 FILLER_67_28
*3776 FILLER_67_35
*3777 FILLER_67_42
*3778 FILLER_67_49
*3779 FILLER_67_56
*3780 FILLER_67_63
*3781 FILLER_67_7
*3782 FILLER_67_70
*3783 FILLER_67_77
*3784 FILLER_67_84
*3785 FILLER_67_965
*3786 FILLER_67_972
*3787 FILLER_67_979
*3788 FILLER_67_986
*3789 FILLER_67_993
*3790 FILLER_68_0
*3791 FILLER_68_1000
*3792 FILLER_68_1007
*3793 FILLER_68_1014
*3794 FILLER_68_1021
*3795 FILLER_68_1028
*3796 FILLER_68_1035
*3797 FILLER_68_1042
*3798 FILLER_68_1049
*3799 FILLER_68_1051
*3800 FILLER_68_14
*3801 FILLER_68_21
*3802 FILLER_68_28
*3803 FILLER_68_35
*3804 FILLER_68_42
*3805 FILLER_68_49
*3806 FILLER_68_56
*3807 FILLER_68_63
*3808 FILLER_68_7
*3809 FILLER_68_70
*3810 FILLER_68_77
*3811 FILLER_68_84
*3812 FILLER_68_965
*3813 FILLER_68_972
*3814 FILLER_68_979
*3815 FILLER_68_986
*3816 FILLER_68_993
*3817 FILLER_69_0
*3818 FILLER_69_1000
*3819 FILLER_69_1007
*3820 FILLER_69_1014
*3821 FILLER_69_1021
*3822 FILLER_69_1028
*3823 FILLER_69_1035
*3824 FILLER_69_1042
*3825 FILLER_69_1049
*3826 FILLER_69_1051
*3827 FILLER_69_14
*3828 FILLER_69_21
*3829 FILLER_69_28
*3830 FILLER_69_35
*3831 FILLER_69_42
*3832 FILLER_69_49
*3833 FILLER_69_56
*3834 FILLER_69_63
*3835 FILLER_69_7
*3836 FILLER_69_70
*3837 FILLER_69_77
*3838 FILLER_69_84
*3839 FILLER_69_965
*3840 FILLER_69_972
*3841 FILLER_69_979
*3842 FILLER_69_986
*3843 FILLER_69_993
*3844 FILLER_6_0
*3845 FILLER_6_1001
*3846 FILLER_6_1008
*3847 FILLER_6_1015
*3848 FILLER_6_1022
*3849 FILLER_6_1029
*3850 FILLER_6_1036
*3851 FILLER_6_1043
*3852 FILLER_6_105
*3853 FILLER_6_1050
*3854 FILLER_6_112
*3855 FILLER_6_119
*3856 FILLER_6_126
*3857 FILLER_6_133
*3858 FILLER_6_14
*3859 FILLER_6_140
*3860 FILLER_6_147
*3861 FILLER_6_154
*3862 FILLER_6_161
*3863 FILLER_6_168
*3864 FILLER_6_175
*3865 FILLER_6_182
*3866 FILLER_6_189
*3867 FILLER_6_196
*3868 FILLER_6_203
*3869 FILLER_6_21
*3870 FILLER_6_210
*3871 FILLER_6_217
*3872 FILLER_6_224
*3873 FILLER_6_231
*3874 FILLER_6_238
*3875 FILLER_6_245
*3876 FILLER_6_252
*3877 FILLER_6_259
*3878 FILLER_6_266
*3879 FILLER_6_273
*3880 FILLER_6_28
*3881 FILLER_6_280
*3882 FILLER_6_287
*3883 FILLER_6_294
*3884 FILLER_6_301
*3885 FILLER_6_308
*3886 FILLER_6_315
*3887 FILLER_6_322
*3888 FILLER_6_329
*3889 FILLER_6_336
*3890 FILLER_6_343
*3891 FILLER_6_35
*3892 FILLER_6_350
*3893 FILLER_6_357
*3894 FILLER_6_364
*3895 FILLER_6_371
*3896 FILLER_6_378
*3897 FILLER_6_385
*3898 FILLER_6_392
*3899 FILLER_6_399
*3900 FILLER_6_406
*3901 FILLER_6_413
*3902 FILLER_6_42
*3903 FILLER_6_420
*3904 FILLER_6_427
*3905 FILLER_6_434
*3906 FILLER_6_441
*3907 FILLER_6_448
*3908 FILLER_6_455
*3909 FILLER_6_462
*3910 FILLER_6_469
*3911 FILLER_6_476
*3912 FILLER_6_483
*3913 FILLER_6_49
*3914 FILLER_6_490
*3915 FILLER_6_497
*3916 FILLER_6_504
*3917 FILLER_6_511
*3918 FILLER_6_518
*3919 FILLER_6_525
*3920 FILLER_6_532
*3921 FILLER_6_539
*3922 FILLER_6_546
*3923 FILLER_6_553
*3924 FILLER_6_56
*3925 FILLER_6_560
*3926 FILLER_6_567
*3927 FILLER_6_574
*3928 FILLER_6_581
*3929 FILLER_6_588
*3930 FILLER_6_595
*3931 FILLER_6_602
*3932 FILLER_6_609
*3933 FILLER_6_616
*3934 FILLER_6_623
*3935 FILLER_6_63
*3936 FILLER_6_630
*3937 FILLER_6_637
*3938 FILLER_6_644
*3939 FILLER_6_651
*3940 FILLER_6_658
*3941 FILLER_6_665
*3942 FILLER_6_672
*3943 FILLER_6_679
*3944 FILLER_6_686
*3945 FILLER_6_693
*3946 FILLER_6_7
*3947 FILLER_6_70
*3948 FILLER_6_700
*3949 FILLER_6_707
*3950 FILLER_6_714
*3951 FILLER_6_721
*3952 FILLER_6_728
*3953 FILLER_6_735
*3954 FILLER_6_742
*3955 FILLER_6_749
*3956 FILLER_6_756
*3957 FILLER_6_763
*3958 FILLER_6_77
*3959 FILLER_6_770
*3960 FILLER_6_777
*3961 FILLER_6_784
*3962 FILLER_6_791
*3963 FILLER_6_798
*3964 FILLER_6_805
*3965 FILLER_6_812
*3966 FILLER_6_819
*3967 FILLER_6_826
*3968 FILLER_6_833
*3969 FILLER_6_84
*3970 FILLER_6_840
*3971 FILLER_6_847
*3972 FILLER_6_854
*3973 FILLER_6_861
*3974 FILLER_6_868
*3975 FILLER_6_875
*3976 FILLER_6_882
*3977 FILLER_6_889
*3978 FILLER_6_896
*3979 FILLER_6_903
*3980 FILLER_6_91
*3981 FILLER_6_910
*3982 FILLER_6_917
*3983 FILLER_6_924
*3984 FILLER_6_931
*3985 FILLER_6_938
*3986 FILLER_6_945
*3987 FILLER_6_952
*3988 FILLER_6_959
*3989 FILLER_6_966
*3990 FILLER_6_973
*3991 FILLER_6_98
*3992 FILLER_6_980
*3993 FILLER_6_987
*3994 FILLER_6_994
*3995 FILLER_70_0
*3996 FILLER_70_1000
*3997 FILLER_70_1007
*3998 FILLER_70_1014
*3999 FILLER_70_1021
*4000 FILLER_70_1028
*4001 FILLER_70_1035
*4002 FILLER_70_1042
*4003 FILLER_70_1049
*4004 FILLER_70_1051
*4005 FILLER_70_14
*4006 FILLER_70_21
*4007 FILLER_70_28
*4008 FILLER_70_35
*4009 FILLER_70_42
*4010 FILLER_70_49
*4011 FILLER_70_56
*4012 FILLER_70_63
*4013 FILLER_70_7
*4014 FILLER_70_70
*4015 FILLER_70_77
*4016 FILLER_70_84
*4017 FILLER_70_965
*4018 FILLER_70_972
*4019 FILLER_70_979
*4020 FILLER_70_986
*4021 FILLER_70_993
*4022 FILLER_71_0
*4023 FILLER_71_1000
*4024 FILLER_71_1007
*4025 FILLER_71_1014
*4026 FILLER_71_1021
*4027 FILLER_71_1028
*4028 FILLER_71_1035
*4029 FILLER_71_1042
*4030 FILLER_71_1049
*4031 FILLER_71_1051
*4032 FILLER_71_14
*4033 FILLER_71_21
*4034 FILLER_71_28
*4035 FILLER_71_35
*4036 FILLER_71_42
*4037 FILLER_71_49
*4038 FILLER_71_56
*4039 FILLER_71_63
*4040 FILLER_71_7
*4041 FILLER_71_70
*4042 FILLER_71_77
*4043 FILLER_71_84
*4044 FILLER_71_965
*4045 FILLER_71_972
*4046 FILLER_71_979
*4047 FILLER_71_986
*4048 FILLER_71_993
*4049 FILLER_72_0
*4050 FILLER_72_1000
*4051 FILLER_72_1007
*4052 FILLER_72_1014
*4053 FILLER_72_1021
*4054 FILLER_72_1028
*4055 FILLER_72_1035
*4056 FILLER_72_1042
*4057 FILLER_72_1049
*4058 FILLER_72_1051
*4059 FILLER_72_14
*4060 FILLER_72_21
*4061 FILLER_72_28
*4062 FILLER_72_35
*4063 FILLER_72_42
*4064 FILLER_72_49
*4065 FILLER_72_56
*4066 FILLER_72_63
*4067 FILLER_72_7
*4068 FILLER_72_70
*4069 FILLER_72_77
*4070 FILLER_72_84
*4071 FILLER_72_965
*4072 FILLER_72_972
*4073 FILLER_72_979
*4074 FILLER_72_986
*4075 FILLER_72_993
*4076 FILLER_73_0
*4077 FILLER_73_1000
*4078 FILLER_73_1007
*4079 FILLER_73_1014
*4080 FILLER_73_1021
*4081 FILLER_73_1028
*4082 FILLER_73_1035
*4083 FILLER_73_1042
*4084 FILLER_73_1049
*4085 FILLER_73_1051
*4086 FILLER_73_14
*4087 FILLER_73_21
*4088 FILLER_73_28
*4089 FILLER_73_35
*4090 FILLER_73_42
*4091 FILLER_73_49
*4092 FILLER_73_56
*4093 FILLER_73_63
*4094 FILLER_73_7
*4095 FILLER_73_70
*4096 FILLER_73_77
*4097 FILLER_73_84
*4098 FILLER_73_965
*4099 FILLER_73_972
*4100 FILLER_73_979
*4101 FILLER_73_986
*4102 FILLER_73_993
*4103 FILLER_74_0
*4104 FILLER_74_1000
*4105 FILLER_74_1007
*4106 FILLER_74_1014
*4107 FILLER_74_1021
*4108 FILLER_74_1028
*4109 FILLER_74_1035
*4110 FILLER_74_1042
*4111 FILLER_74_1049
*4112 FILLER_74_1051
*4113 FILLER_74_14
*4114 FILLER_74_21
*4115 FILLER_74_28
*4116 FILLER_74_35
*4117 FILLER_74_42
*4118 FILLER_74_49
*4119 FILLER_74_56
*4120 FILLER_74_63
*4121 FILLER_74_7
*4122 FILLER_74_70
*4123 FILLER_74_77
*4124 FILLER_74_84
*4125 FILLER_74_965
*4126 FILLER_74_972
*4127 FILLER_74_979
*4128 FILLER_74_986
*4129 FILLER_74_993
*4130 FILLER_75_0
*4131 FILLER_75_1000
*4132 FILLER_75_1007
*4133 FILLER_75_1014
*4134 FILLER_75_1021
*4135 FILLER_75_1028
*4136 FILLER_75_1035
*4137 FILLER_75_1042
*4138 FILLER_75_1049
*4139 FILLER_75_1051
*4140 FILLER_75_14
*4141 FILLER_75_21
*4142 FILLER_75_28
*4143 FILLER_75_35
*4144 FILLER_75_42
*4145 FILLER_75_49
*4146 FILLER_75_56
*4147 FILLER_75_63
*4148 FILLER_75_7
*4149 FILLER_75_70
*4150 FILLER_75_77
*4151 FILLER_75_84
*4152 FILLER_75_965
*4153 FILLER_75_972
*4154 FILLER_75_979
*4155 FILLER_75_986
*4156 FILLER_75_993
*4157 FILLER_76_0
*4158 FILLER_76_1000
*4159 FILLER_76_1007
*4160 FILLER_76_1014
*4161 FILLER_76_1021
*4162 FILLER_76_1028
*4163 FILLER_76_1035
*4164 FILLER_76_1042
*4165 FILLER_76_1049
*4166 FILLER_76_1051
*4167 FILLER_76_14
*4168 FILLER_76_21
*4169 FILLER_76_28
*4170 FILLER_76_35
*4171 FILLER_76_42
*4172 FILLER_76_49
*4173 FILLER_76_56
*4174 FILLER_76_63
*4175 FILLER_76_7
*4176 FILLER_76_70
*4177 FILLER_76_77
*4178 FILLER_76_84
*4179 FILLER_76_965
*4180 FILLER_76_972
*4181 FILLER_76_979
*4182 FILLER_76_986
*4183 FILLER_76_993
*4184 FILLER_77_0
*4185 FILLER_77_1000
*4186 FILLER_77_1007
*4187 FILLER_77_1014
*4188 FILLER_77_1021
*4189 FILLER_77_1028
*4190 FILLER_77_1035
*4191 FILLER_77_1042
*4192 FILLER_77_1049
*4193 FILLER_77_1051
*4194 FILLER_77_14
*4195 FILLER_77_21
*4196 FILLER_77_28
*4197 FILLER_77_35
*4198 FILLER_77_42
*4199 FILLER_77_49
*4200 FILLER_77_56
*4201 FILLER_77_63
*4202 FILLER_77_7
*4203 FILLER_77_70
*4204 FILLER_77_77
*4205 FILLER_77_84
*4206 FILLER_77_965
*4207 FILLER_77_972
*4208 FILLER_77_979
*4209 FILLER_77_986
*4210 FILLER_77_993
*4211 FILLER_78_0
*4212 FILLER_78_1000
*4213 FILLER_78_1007
*4214 FILLER_78_1014
*4215 FILLER_78_1021
*4216 FILLER_78_1028
*4217 FILLER_78_1035
*4218 FILLER_78_1042
*4219 FILLER_78_1049
*4220 FILLER_78_1051
*4221 FILLER_78_14
*4222 FILLER_78_21
*4223 FILLER_78_28
*4224 FILLER_78_35
*4225 FILLER_78_42
*4226 FILLER_78_49
*4227 FILLER_78_56
*4228 FILLER_78_63
*4229 FILLER_78_7
*4230 FILLER_78_70
*4231 FILLER_78_77
*4232 FILLER_78_84
*4233 FILLER_78_965
*4234 FILLER_78_972
*4235 FILLER_78_979
*4236 FILLER_78_986
*4237 FILLER_78_993
*4238 FILLER_79_0
*4239 FILLER_79_1000
*4240 FILLER_79_1007
*4241 FILLER_79_1014
*4242 FILLER_79_1021
*4243 FILLER_79_1028
*4244 FILLER_79_1035
*4245 FILLER_79_1042
*4246 FILLER_79_1049
*4247 FILLER_79_1051
*4248 FILLER_79_14
*4249 FILLER_79_21
*4250 FILLER_79_28
*4251 FILLER_79_35
*4252 FILLER_79_42
*4253 FILLER_79_49
*4254 FILLER_79_56
*4255 FILLER_79_63
*4256 FILLER_79_7
*4257 FILLER_79_70
*4258 FILLER_79_77
*4259 FILLER_79_84
*4260 FILLER_79_965
*4261 FILLER_79_972
*4262 FILLER_79_979
*4263 FILLER_79_986
*4264 FILLER_79_993
*4265 FILLER_7_0
*4266 FILLER_7_1000
*4267 FILLER_7_1007
*4268 FILLER_7_1014
*4269 FILLER_7_1021
*4270 FILLER_7_1028
*4271 FILLER_7_1035
*4272 FILLER_7_1042
*4273 FILLER_7_1049
*4274 FILLER_7_105
*4275 FILLER_7_1051
*4276 FILLER_7_112
*4277 FILLER_7_119
*4278 FILLER_7_126
*4279 FILLER_7_133
*4280 FILLER_7_14
*4281 FILLER_7_140
*4282 FILLER_7_147
*4283 FILLER_7_154
*4284 FILLER_7_161
*4285 FILLER_7_168
*4286 FILLER_7_175
*4287 FILLER_7_182
*4288 FILLER_7_189
*4289 FILLER_7_196
*4290 FILLER_7_203
*4291 FILLER_7_21
*4292 FILLER_7_210
*4293 FILLER_7_217
*4294 FILLER_7_224
*4295 FILLER_7_231
*4296 FILLER_7_238
*4297 FILLER_7_245
*4298 FILLER_7_252
*4299 FILLER_7_259
*4300 FILLER_7_266
*4301 FILLER_7_273
*4302 FILLER_7_28
*4303 FILLER_7_280
*4304 FILLER_7_287
*4305 FILLER_7_294
*4306 FILLER_7_301
*4307 FILLER_7_308
*4308 FILLER_7_315
*4309 FILLER_7_322
*4310 FILLER_7_329
*4311 FILLER_7_336
*4312 FILLER_7_343
*4313 FILLER_7_35
*4314 FILLER_7_350
*4315 FILLER_7_357
*4316 FILLER_7_364
*4317 FILLER_7_371
*4318 FILLER_7_378
*4319 FILLER_7_385
*4320 FILLER_7_392
*4321 FILLER_7_399
*4322 FILLER_7_406
*4323 FILLER_7_413
*4324 FILLER_7_42
*4325 FILLER_7_420
*4326 FILLER_7_427
*4327 FILLER_7_434
*4328 FILLER_7_441
*4329 FILLER_7_448
*4330 FILLER_7_455
*4331 FILLER_7_462
*4332 FILLER_7_469
*4333 FILLER_7_476
*4334 FILLER_7_483
*4335 FILLER_7_49
*4336 FILLER_7_490
*4337 FILLER_7_497
*4338 FILLER_7_504
*4339 FILLER_7_511
*4340 FILLER_7_518
*4341 FILLER_7_522
*4342 FILLER_7_531
*4343 FILLER_7_538
*4344 FILLER_7_545
*4345 FILLER_7_552
*4346 FILLER_7_559
*4347 FILLER_7_56
*4348 FILLER_7_566
*4349 FILLER_7_573
*4350 FILLER_7_580
*4351 FILLER_7_587
*4352 FILLER_7_594
*4353 FILLER_7_601
*4354 FILLER_7_608
*4355 FILLER_7_615
*4356 FILLER_7_622
*4357 FILLER_7_629
*4358 FILLER_7_63
*4359 FILLER_7_636
*4360 FILLER_7_643
*4361 FILLER_7_650
*4362 FILLER_7_657
*4363 FILLER_7_664
*4364 FILLER_7_671
*4365 FILLER_7_678
*4366 FILLER_7_685
*4367 FILLER_7_692
*4368 FILLER_7_699
*4369 FILLER_7_7
*4370 FILLER_7_70
*4371 FILLER_7_706
*4372 FILLER_7_713
*4373 FILLER_7_720
*4374 FILLER_7_727
*4375 FILLER_7_734
*4376 FILLER_7_741
*4377 FILLER_7_748
*4378 FILLER_7_755
*4379 FILLER_7_762
*4380 FILLER_7_769
*4381 FILLER_7_77
*4382 FILLER_7_776
*4383 FILLER_7_783
*4384 FILLER_7_790
*4385 FILLER_7_797
*4386 FILLER_7_804
*4387 FILLER_7_811
*4388 FILLER_7_818
*4389 FILLER_7_825
*4390 FILLER_7_832
*4391 FILLER_7_839
*4392 FILLER_7_84
*4393 FILLER_7_846
*4394 FILLER_7_853
*4395 FILLER_7_860
*4396 FILLER_7_867
*4397 FILLER_7_874
*4398 FILLER_7_881
*4399 FILLER_7_888
*4400 FILLER_7_895
*4401 FILLER_7_902
*4402 FILLER_7_909
*4403 FILLER_7_91
*4404 FILLER_7_916
*4405 FILLER_7_923
*4406 FILLER_7_930
*4407 FILLER_7_937
*4408 FILLER_7_944
*4409 FILLER_7_951
*4410 FILLER_7_958
*4411 FILLER_7_965
*4412 FILLER_7_972
*4413 FILLER_7_979
*4414 FILLER_7_98
*4415 FILLER_7_986
*4416 FILLER_7_993
*4417 FILLER_80_0
*4418 FILLER_80_1000
*4419 FILLER_80_1007
*4420 FILLER_80_1014
*4421 FILLER_80_1021
*4422 FILLER_80_1028
*4423 FILLER_80_1035
*4424 FILLER_80_1042
*4425 FILLER_80_1049
*4426 FILLER_80_1051
*4427 FILLER_80_14
*4428 FILLER_80_21
*4429 FILLER_80_28
*4430 FILLER_80_35
*4431 FILLER_80_42
*4432 FILLER_80_49
*4433 FILLER_80_56
*4434 FILLER_80_63
*4435 FILLER_80_7
*4436 FILLER_80_70
*4437 FILLER_80_77
*4438 FILLER_80_84
*4439 FILLER_80_965
*4440 FILLER_80_972
*4441 FILLER_80_979
*4442 FILLER_80_986
*4443 FILLER_80_993
*4444 FILLER_81_0
*4445 FILLER_81_1000
*4446 FILLER_81_1007
*4447 FILLER_81_1014
*4448 FILLER_81_1021
*4449 FILLER_81_1028
*4450 FILLER_81_1035
*4451 FILLER_81_1042
*4452 FILLER_81_1049
*4453 FILLER_81_1051
*4454 FILLER_81_14
*4455 FILLER_81_21
*4456 FILLER_81_28
*4457 FILLER_81_35
*4458 FILLER_81_42
*4459 FILLER_81_49
*4460 FILLER_81_56
*4461 FILLER_81_63
*4462 FILLER_81_7
*4463 FILLER_81_70
*4464 FILLER_81_77
*4465 FILLER_81_84
*4466 FILLER_81_965
*4467 FILLER_81_972
*4468 FILLER_81_979
*4469 FILLER_81_986
*4470 FILLER_81_993
*4471 FILLER_82_0
*4472 FILLER_82_1000
*4473 FILLER_82_1007
*4474 FILLER_82_1014
*4475 FILLER_82_1021
*4476 FILLER_82_1028
*4477 FILLER_82_1035
*4478 FILLER_82_1042
*4479 FILLER_82_1049
*4480 FILLER_82_1051
*4481 FILLER_82_14
*4482 FILLER_82_21
*4483 FILLER_82_28
*4484 FILLER_82_35
*4485 FILLER_82_42
*4486 FILLER_82_49
*4487 FILLER_82_56
*4488 FILLER_82_63
*4489 FILLER_82_7
*4490 FILLER_82_70
*4491 FILLER_82_77
*4492 FILLER_82_84
*4493 FILLER_82_965
*4494 FILLER_82_972
*4495 FILLER_82_979
*4496 FILLER_82_986
*4497 FILLER_82_993
*4498 FILLER_83_0
*4499 FILLER_83_1000
*4500 FILLER_83_1007
*4501 FILLER_83_1014
*4502 FILLER_83_1021
*4503 FILLER_83_1028
*4504 FILLER_83_1035
*4505 FILLER_83_1042
*4506 FILLER_83_1049
*4507 FILLER_83_1051
*4508 FILLER_83_14
*4509 FILLER_83_21
*4510 FILLER_83_28
*4511 FILLER_83_35
*4512 FILLER_83_42
*4513 FILLER_83_49
*4514 FILLER_83_56
*4515 FILLER_83_63
*4516 FILLER_83_7
*4517 FILLER_83_70
*4518 FILLER_83_77
*4519 FILLER_83_84
*4520 FILLER_83_965
*4521 FILLER_83_972
*4522 FILLER_83_979
*4523 FILLER_83_986
*4524 FILLER_83_993
*4525 FILLER_84_0
*4526 FILLER_84_1000
*4527 FILLER_84_1007
*4528 FILLER_84_1014
*4529 FILLER_84_1021
*4530 FILLER_84_1028
*4531 FILLER_84_1035
*4532 FILLER_84_1042
*4533 FILLER_84_1049
*4534 FILLER_84_1051
*4535 FILLER_84_14
*4536 FILLER_84_21
*4537 FILLER_84_28
*4538 FILLER_84_35
*4539 FILLER_84_42
*4540 FILLER_84_49
*4541 FILLER_84_56
*4542 FILLER_84_63
*4543 FILLER_84_7
*4544 FILLER_84_70
*4545 FILLER_84_77
*4546 FILLER_84_84
*4547 FILLER_84_965
*4548 FILLER_84_972
*4549 FILLER_84_979
*4550 FILLER_84_986
*4551 FILLER_84_993
*4552 FILLER_85_0
*4553 FILLER_85_1000
*4554 FILLER_85_1007
*4555 FILLER_85_1014
*4556 FILLER_85_1021
*4557 FILLER_85_1028
*4558 FILLER_85_1035
*4559 FILLER_85_1042
*4560 FILLER_85_1049
*4561 FILLER_85_1051
*4562 FILLER_85_14
*4563 FILLER_85_21
*4564 FILLER_85_28
*4565 FILLER_85_35
*4566 FILLER_85_42
*4567 FILLER_85_49
*4568 FILLER_85_56
*4569 FILLER_85_63
*4570 FILLER_85_7
*4571 FILLER_85_70
*4572 FILLER_85_77
*4573 FILLER_85_84
*4574 FILLER_85_965
*4575 FILLER_85_972
*4576 FILLER_85_979
*4577 FILLER_85_986
*4578 FILLER_85_993
*4579 FILLER_86_0
*4580 FILLER_86_1000
*4581 FILLER_86_1007
*4582 FILLER_86_1014
*4583 FILLER_86_1021
*4584 FILLER_86_1028
*4585 FILLER_86_1035
*4586 FILLER_86_1042
*4587 FILLER_86_1049
*4588 FILLER_86_1051
*4589 FILLER_86_14
*4590 FILLER_86_21
*4591 FILLER_86_28
*4592 FILLER_86_35
*4593 FILLER_86_42
*4594 FILLER_86_49
*4595 FILLER_86_56
*4596 FILLER_86_63
*4597 FILLER_86_7
*4598 FILLER_86_70
*4599 FILLER_86_77
*4600 FILLER_86_84
*4601 FILLER_86_965
*4602 FILLER_86_972
*4603 FILLER_86_979
*4604 FILLER_86_986
*4605 FILLER_86_993
*4606 FILLER_87_0
*4607 FILLER_87_1000
*4608 FILLER_87_1007
*4609 FILLER_87_1014
*4610 FILLER_87_1021
*4611 FILLER_87_1028
*4612 FILLER_87_1035
*4613 FILLER_87_1042
*4614 FILLER_87_1049
*4615 FILLER_87_1051
*4616 FILLER_87_14
*4617 FILLER_87_21
*4618 FILLER_87_28
*4619 FILLER_87_35
*4620 FILLER_87_42
*4621 FILLER_87_49
*4622 FILLER_87_56
*4623 FILLER_87_63
*4624 FILLER_87_7
*4625 FILLER_87_70
*4626 FILLER_87_77
*4627 FILLER_87_84
*4628 FILLER_87_965
*4629 FILLER_87_972
*4630 FILLER_87_979
*4631 FILLER_87_986
*4632 FILLER_87_993
*4633 FILLER_88_0
*4634 FILLER_88_1000
*4635 FILLER_88_1007
*4636 FILLER_88_1014
*4637 FILLER_88_1021
*4638 FILLER_88_1028
*4639 FILLER_88_1035
*4640 FILLER_88_1042
*4641 FILLER_88_1049
*4642 FILLER_88_1051
*4643 FILLER_88_14
*4644 FILLER_88_21
*4645 FILLER_88_28
*4646 FILLER_88_35
*4647 FILLER_88_42
*4648 FILLER_88_49
*4649 FILLER_88_56
*4650 FILLER_88_63
*4651 FILLER_88_7
*4652 FILLER_88_70
*4653 FILLER_88_77
*4654 FILLER_88_84
*4655 FILLER_88_965
*4656 FILLER_88_972
*4657 FILLER_88_979
*4658 FILLER_88_986
*4659 FILLER_88_993
*4660 FILLER_89_0
*4661 FILLER_89_1000
*4662 FILLER_89_1007
*4663 FILLER_89_1014
*4664 FILLER_89_1021
*4665 FILLER_89_1028
*4666 FILLER_89_1035
*4667 FILLER_89_1042
*4668 FILLER_89_1049
*4669 FILLER_89_1051
*4670 FILLER_89_14
*4671 FILLER_89_21
*4672 FILLER_89_28
*4673 FILLER_89_35
*4674 FILLER_89_42
*4675 FILLER_89_49
*4676 FILLER_89_56
*4677 FILLER_89_63
*4678 FILLER_89_7
*4679 FILLER_89_70
*4680 FILLER_89_77
*4681 FILLER_89_84
*4682 FILLER_89_965
*4683 FILLER_89_972
*4684 FILLER_89_979
*4685 FILLER_89_986
*4686 FILLER_89_993
*4687 FILLER_8_0
*4688 FILLER_8_1000
*4689 FILLER_8_1007
*4690 FILLER_8_1014
*4691 FILLER_8_1021
*4692 FILLER_8_1028
*4693 FILLER_8_1035
*4694 FILLER_8_1042
*4695 FILLER_8_1049
*4696 FILLER_8_105
*4697 FILLER_8_1051
*4698 FILLER_8_112
*4699 FILLER_8_117
*4700 FILLER_8_128
*4701 FILLER_8_135
*4702 FILLER_8_14
*4703 FILLER_8_140
*4704 FILLER_8_147
*4705 FILLER_8_152
*4706 FILLER_8_159
*4707 FILLER_8_164
*4708 FILLER_8_175
*4709 FILLER_8_182
*4710 FILLER_8_187
*4711 FILLER_8_194
*4712 FILLER_8_199
*4713 FILLER_8_21
*4714 FILLER_8_210
*4715 FILLER_8_217
*4716 FILLER_8_222
*4717 FILLER_8_229
*4718 FILLER_8_234
*4719 FILLER_8_241
*4720 FILLER_8_246
*4721 FILLER_8_257
*4722 FILLER_8_264
*4723 FILLER_8_269
*4724 FILLER_8_276
*4725 FILLER_8_28
*4726 FILLER_8_281
*4727 FILLER_8_292
*4728 FILLER_8_299
*4729 FILLER_8_304
*4730 FILLER_8_311
*4731 FILLER_8_316
*4732 FILLER_8_323
*4733 FILLER_8_328
*4734 FILLER_8_339
*4735 FILLER_8_346
*4736 FILLER_8_35
*4737 FILLER_8_351
*4738 FILLER_8_358
*4739 FILLER_8_363
*4740 FILLER_8_374
*4741 FILLER_8_381
*4742 FILLER_8_386
*4743 FILLER_8_393
*4744 FILLER_8_398
*4745 FILLER_8_409
*4746 FILLER_8_416
*4747 FILLER_8_42
*4748 FILLER_8_421
*4749 FILLER_8_428
*4750 FILLER_8_433
*4751 FILLER_8_440
*4752 FILLER_8_445
*4753 FILLER_8_456
*4754 FILLER_8_463
*4755 FILLER_8_468
*4756 FILLER_8_475
*4757 FILLER_8_482
*4758 FILLER_8_489
*4759 FILLER_8_49
*4760 FILLER_8_491
*4761 FILLER_8_500
*4762 FILLER_8_543
*4763 FILLER_8_545
*4764 FILLER_8_550
*4765 FILLER_8_56
*4766 FILLER_8_565
*4767 FILLER_8_572
*4768 FILLER_8_579
*4769 FILLER_8_586
*4770 FILLER_8_592
*4771 FILLER_8_599
*4772 FILLER_8_604
*4773 FILLER_8_611
*4774 FILLER_8_616
*4775 FILLER_8_627
*4776 FILLER_8_63
*4777 FILLER_8_634
*4778 FILLER_8_639
*4779 FILLER_8_646
*4780 FILLER_8_651
*4781 FILLER_8_658
*4782 FILLER_8_663
*4783 FILLER_8_674
*4784 FILLER_8_681
*4785 FILLER_8_686
*4786 FILLER_8_693
*4787 FILLER_8_698
*4788 FILLER_8_7
*4789 FILLER_8_70
*4790 FILLER_8_709
*4791 FILLER_8_716
*4792 FILLER_8_721
*4793 FILLER_8_728
*4794 FILLER_8_733
*4795 FILLER_8_740
*4796 FILLER_8_745
*4797 FILLER_8_756
*4798 FILLER_8_763
*4799 FILLER_8_768
*4800 FILLER_8_77
*4801 FILLER_8_775
*4802 FILLER_8_780
*4803 FILLER_8_791
*4804 FILLER_8_798
*4805 FILLER_8_803
*4806 FILLER_8_810
*4807 FILLER_8_815
*4808 FILLER_8_826
*4809 FILLER_8_833
*4810 FILLER_8_838
*4811 FILLER_8_84
*4812 FILLER_8_845
*4813 FILLER_8_850
*4814 FILLER_8_857
*4815 FILLER_8_862
*4816 FILLER_8_873
*4817 FILLER_8_880
*4818 FILLER_8_885
*4819 FILLER_8_892
*4820 FILLER_8_897
*4821 FILLER_8_908
*4822 FILLER_8_91
*4823 FILLER_8_915
*4824 FILLER_8_920
*4825 FILLER_8_927
*4826 FILLER_8_932
*4827 FILLER_8_939
*4828 FILLER_8_944
*4829 FILLER_8_951
*4830 FILLER_8_958
*4831 FILLER_8_965
*4832 FILLER_8_972
*4833 FILLER_8_979
*4834 FILLER_8_98
*4835 FILLER_8_986
*4836 FILLER_8_993
*4837 FILLER_90_0
*4838 FILLER_90_1000
*4839 FILLER_90_1007
*4840 FILLER_90_1014
*4841 FILLER_90_1021
*4842 FILLER_90_1028
*4843 FILLER_90_1035
*4844 FILLER_90_1042
*4845 FILLER_90_1049
*4846 FILLER_90_1051
*4847 FILLER_90_14
*4848 FILLER_90_21
*4849 FILLER_90_28
*4850 FILLER_90_35
*4851 FILLER_90_42
*4852 FILLER_90_49
*4853 FILLER_90_56
*4854 FILLER_90_63
*4855 FILLER_90_7
*4856 FILLER_90_70
*4857 FILLER_90_77
*4858 FILLER_90_84
*4859 FILLER_90_965
*4860 FILLER_90_972
*4861 FILLER_90_979
*4862 FILLER_90_986
*4863 FILLER_90_993
*4864 FILLER_91_0
*4865 FILLER_91_1000
*4866 FILLER_91_1007
*4867 FILLER_91_1014
*4868 FILLER_91_1021
*4869 FILLER_91_1028
*4870 FILLER_91_1035
*4871 FILLER_91_1042
*4872 FILLER_91_1049
*4873 FILLER_91_1051
*4874 FILLER_91_14
*4875 FILLER_91_21
*4876 FILLER_91_28
*4877 FILLER_91_35
*4878 FILLER_91_42
*4879 FILLER_91_49
*4880 FILLER_91_56
*4881 FILLER_91_63
*4882 FILLER_91_7
*4883 FILLER_91_70
*4884 FILLER_91_77
*4885 FILLER_91_84
*4886 FILLER_91_965
*4887 FILLER_91_972
*4888 FILLER_91_979
*4889 FILLER_91_986
*4890 FILLER_91_993
*4891 FILLER_92_0
*4892 FILLER_92_1000
*4893 FILLER_92_1007
*4894 FILLER_92_1014
*4895 FILLER_92_1021
*4896 FILLER_92_1028
*4897 FILLER_92_1035
*4898 FILLER_92_1042
*4899 FILLER_92_1049
*4900 FILLER_92_1051
*4901 FILLER_92_14
*4902 FILLER_92_21
*4903 FILLER_92_28
*4904 FILLER_92_35
*4905 FILLER_92_42
*4906 FILLER_92_49
*4907 FILLER_92_56
*4908 FILLER_92_63
*4909 FILLER_92_7
*4910 FILLER_92_70
*4911 FILLER_92_77
*4912 FILLER_92_84
*4913 FILLER_92_965
*4914 FILLER_92_972
*4915 FILLER_92_979
*4916 FILLER_92_986
*4917 FILLER_92_993
*4918 FILLER_93_0
*4919 FILLER_93_1000
*4920 FILLER_93_1007
*4921 FILLER_93_1014
*4922 FILLER_93_1021
*4923 FILLER_93_1028
*4924 FILLER_93_1035
*4925 FILLER_93_1042
*4926 FILLER_93_1049
*4927 FILLER_93_1051
*4928 FILLER_93_14
*4929 FILLER_93_21
*4930 FILLER_93_28
*4931 FILLER_93_35
*4932 FILLER_93_42
*4933 FILLER_93_49
*4934 FILLER_93_56
*4935 FILLER_93_63
*4936 FILLER_93_7
*4937 FILLER_93_70
*4938 FILLER_93_77
*4939 FILLER_93_84
*4940 FILLER_93_965
*4941 FILLER_93_972
*4942 FILLER_93_979
*4943 FILLER_93_986
*4944 FILLER_93_993
*4945 FILLER_94_0
*4946 FILLER_94_1000
*4947 FILLER_94_1007
*4948 FILLER_94_1014
*4949 FILLER_94_1021
*4950 FILLER_94_1028
*4951 FILLER_94_1035
*4952 FILLER_94_1042
*4953 FILLER_94_1049
*4954 FILLER_94_1051
*4955 FILLER_94_14
*4956 FILLER_94_21
*4957 FILLER_94_28
*4958 FILLER_94_35
*4959 FILLER_94_42
*4960 FILLER_94_49
*4961 FILLER_94_56
*4962 FILLER_94_63
*4963 FILLER_94_7
*4964 FILLER_94_70
*4965 FILLER_94_77
*4966 FILLER_94_84
*4967 FILLER_94_965
*4968 FILLER_94_972
*4969 FILLER_94_979
*4970 FILLER_94_986
*4971 FILLER_94_993
*4972 FILLER_95_0
*4973 FILLER_95_1000
*4974 FILLER_95_1007
*4975 FILLER_95_1014
*4976 FILLER_95_1021
*4977 FILLER_95_1028
*4978 FILLER_95_1035
*4979 FILLER_95_1042
*4980 FILLER_95_1049
*4981 FILLER_95_1051
*4982 FILLER_95_14
*4983 FILLER_95_21
*4984 FILLER_95_28
*4985 FILLER_95_35
*4986 FILLER_95_42
*4987 FILLER_95_49
*4988 FILLER_95_56
*4989 FILLER_95_63
*4990 FILLER_95_7
*4991 FILLER_95_70
*4992 FILLER_95_77
*4993 FILLER_95_84
*4994 FILLER_95_965
*4995 FILLER_95_972
*4996 FILLER_95_979
*4997 FILLER_95_986
*4998 FILLER_95_993
*4999 FILLER_96_0
*5000 FILLER_96_1000
*5001 FILLER_96_1007
*5002 FILLER_96_1014
*5003 FILLER_96_1021
*5004 FILLER_96_1028
*5005 FILLER_96_1035
*5006 FILLER_96_1042
*5007 FILLER_96_1049
*5008 FILLER_96_1051
*5009 FILLER_96_14
*5010 FILLER_96_21
*5011 FILLER_96_28
*5012 FILLER_96_35
*5013 FILLER_96_42
*5014 FILLER_96_49
*5015 FILLER_96_56
*5016 FILLER_96_63
*5017 FILLER_96_7
*5018 FILLER_96_70
*5019 FILLER_96_77
*5020 FILLER_96_84
*5021 FILLER_96_965
*5022 FILLER_96_972
*5023 FILLER_96_979
*5024 FILLER_96_986
*5025 FILLER_96_993
*5026 FILLER_97_0
*5027 FILLER_97_1000
*5028 FILLER_97_1007
*5029 FILLER_97_1014
*5030 FILLER_97_1021
*5031 FILLER_97_1028
*5032 FILLER_97_1035
*5033 FILLER_97_1042
*5034 FILLER_97_1049
*5035 FILLER_97_1051
*5036 FILLER_97_14
*5037 FILLER_97_21
*5038 FILLER_97_28
*5039 FILLER_97_35
*5040 FILLER_97_42
*5041 FILLER_97_49
*5042 FILLER_97_56
*5043 FILLER_97_63
*5044 FILLER_97_7
*5045 FILLER_97_70
*5046 FILLER_97_77
*5047 FILLER_97_84
*5048 FILLER_97_965
*5049 FILLER_97_972
*5050 FILLER_97_979
*5051 FILLER_97_986
*5052 FILLER_97_993
*5053 FILLER_98_0
*5054 FILLER_98_1000
*5055 FILLER_98_1007
*5056 FILLER_98_1014
*5057 FILLER_98_1021
*5058 FILLER_98_1028
*5059 FILLER_98_1035
*5060 FILLER_98_1042
*5061 FILLER_98_1049
*5062 FILLER_98_1051
*5063 FILLER_98_14
*5064 FILLER_98_21
*5065 FILLER_98_28
*5066 FILLER_98_35
*5067 FILLER_98_42
*5068 FILLER_98_49
*5069 FILLER_98_56
*5070 FILLER_98_63
*5071 FILLER_98_7
*5072 FILLER_98_70
*5073 FILLER_98_77
*5074 FILLER_98_84
*5075 FILLER_98_965
*5076 FILLER_98_972
*5077 FILLER_98_979
*5078 FILLER_98_986
*5079 FILLER_98_993
*5080 FILLER_99_0
*5081 FILLER_99_1000
*5082 FILLER_99_1007
*5083 FILLER_99_1014
*5084 FILLER_99_1021
*5085 FILLER_99_1028
*5086 FILLER_99_1035
*5087 FILLER_99_1042
*5088 FILLER_99_1049
*5089 FILLER_99_1051
*5090 FILLER_99_14
*5091 FILLER_99_21
*5092 FILLER_99_28
*5093 FILLER_99_35
*5094 FILLER_99_42
*5095 FILLER_99_49
*5096 FILLER_99_56
*5097 FILLER_99_63
*5098 FILLER_99_7
*5099 FILLER_99_70
*5100 FILLER_99_77
*5101 FILLER_99_84
*5102 FILLER_99_965
*5103 FILLER_99_972
*5104 FILLER_99_979
*5105 FILLER_99_986
*5106 FILLER_99_993
*5107 FILLER_9_1000
*5108 FILLER_9_1007
*5109 FILLER_9_1014
*5110 FILLER_9_1021
*5111 FILLER_9_1028
*5112 FILLER_9_1035
*5113 FILLER_9_1042
*5114 FILLER_9_1049
*5115 FILLER_9_1051
*5116 FILLER_9_15
*5117 FILLER_9_22
*5118 FILLER_9_29
*5119 FILLER_9_36
*5120 FILLER_9_43
*5121 FILLER_9_50
*5122 FILLER_9_57
*5123 FILLER_9_64
*5124 FILLER_9_71
*5125 FILLER_9_78
*5126 FILLER_9_8
*5127 FILLER_9_85
*5128 FILLER_9_87
*5129 FILLER_9_965
*5130 FILLER_9_972
*5131 FILLER_9_979
*5132 FILLER_9_986
*5133 FILLER_9_993
*5134 _083_
*5135 _084_
*5136 _085_
*5137 input1
*5138 input10
*5139 input11
*5140 input12
*5141 input13
*5142 input14
*5143 input15
*5144 input16
*5145 input17
*5146 input18
*5147 input19
*5148 input2
*5149 input20
*5150 input21
*5151 input22
*5152 input23
*5153 input24
*5154 input25
*5155 input26
*5156 input27
*5157 input28
*5158 input29
*5159 input3
*5160 input30
*5161 input31
*5162 input32
*5163 input33
*5164 input34
*5165 input35
*5166 input36
*5167 input37
*5168 input38
*5169 input39
*5170 input4
*5171 input40
*5172 input41
*5173 input42
*5174 input43
*5175 input44
*5176 input45
*5177 input46
*5178 input47
*5179 input48
*5180 input5
*5181 input6
*5182 input7
*5183 input8
*5184 input9
*5185 output49
*5186 output50
*5187 output51
*5188 output52
*5189 output53
*5190 output54
*5191 output55
*5192 output56
*5193 output57
*5194 output58
*5195 output59
*5196 output60
*5197 output61
*5198 output62
*5199 output63
*5200 output64
*5201 output65
*5202 output66
*5203 output67
*5204 output68
*5205 output69
*5206 output70
*5207 output71
*5208 output72
*5209 output73
*5210 output74
*5211 output75
*5212 output76
*5213 output77
*5214 output78
*5215 output79
*5216 output80
*5217 u_sram
*5218 u_sram_100
*5219 u_sram_101
*5220 u_sram_102
*5221 u_sram_103
*5222 u_sram_104
*5223 u_sram_105
*5224 u_sram_106
*5225 u_sram_107
*5226 u_sram_108
*5227 u_sram_109
*5228 u_sram_110
*5229 u_sram_111
*5230 u_sram_112
*5231 u_sram_113
*5232 u_sram_114
*5233 u_sram_115
*5234 u_sram_116
*5235 u_sram_117
*5236 u_sram_118
*5237 u_sram_119
*5238 u_sram_120
*5239 u_sram_121
*5240 u_sram_122
*5241 u_sram_123
*5242 u_sram_124
*5243 u_sram_125
*5244 u_sram_126
*5245 u_sram_127
*5246 u_sram_128
*5247 u_sram_129
*5248 u_sram_130
*5249 u_sram_131
*5250 u_sram_132
*5251 u_sram_133
*5252 u_sram_134
*5253 u_sram_135
*5254 u_sram_136
*5255 u_sram_137
*5256 u_sram_138
*5257 u_sram_139
*5258 u_sram_140
*5259 u_sram_141
*5260 u_sram_142
*5261 u_sram_143
*5262 u_sram_144
*5263 u_sram_145
*5264 u_sram_146
*5265 u_sram_147
*5266 u_sram_148
*5267 u_sram_149
*5268 u_sram_150
*5269 u_sram_151
*5270 u_sram_152
*5271 u_sram_153
*5272 u_sram_154
*5273 u_sram_155
*5274 u_sram_156
*5275 u_sram_157
*5276 u_sram_158
*5277 u_sram_159
*5278 u_sram_160
*5279 u_sram_81
*5280 u_sram_82
*5281 u_sram_83
*5282 u_sram_84
*5283 u_sram_85
*5284 u_sram_86
*5285 u_sram_87
*5286 u_sram_88
*5287 u_sram_89
*5288 u_sram_90
*5289 u_sram_91
*5290 u_sram_92
*5291 u_sram_93
*5292 u_sram_94
*5293 u_sram_95
*5294 u_sram_96
*5295 u_sram_97
*5296 u_sram_98
*5297 u_sram_99

*PORTS
addr[0] I
addr[1] I
addr[2] I
addr[3] I
addr[4] I
addr[5] I
addr[6] I
addr[7] I
addr[8] I
addr[9] I
clk I
cs I
rdata[0] O
rdata[10] O
rdata[11] O
rdata[12] O
rdata[13] O
rdata[14] O
rdata[15] O
rdata[16] O
rdata[17] O
rdata[18] O
rdata[19] O
rdata[1] O
rdata[20] O
rdata[21] O
rdata[22] O
rdata[23] O
rdata[24] O
rdata[25] O
rdata[26] O
rdata[27] O
rdata[28] O
rdata[29] O
rdata[2] O
rdata[30] O
rdata[31] O
rdata[3] O
rdata[4] O
rdata[5] O
rdata[6] O
rdata[7] O
rdata[8] O
rdata[9] O
wdata[0] I
wdata[10] I
wdata[11] I
wdata[12] I
wdata[13] I
wdata[14] I
wdata[15] I
wdata[16] I
wdata[17] I
wdata[18] I
wdata[19] I
wdata[1] I
wdata[20] I
wdata[21] I
wdata[22] I
wdata[23] I
wdata[24] I
wdata[25] I
wdata[26] I
wdata[27] I
wdata[28] I
wdata[29] I
wdata[2] I
wdata[30] I
wdata[31] I
wdata[3] I
wdata[4] I
wdata[5] I
wdata[6] I
wdata[7] I
wdata[8] I
wdata[9] I
we I
wmask[0] I
wmask[1] I
wmask[2] I
wmask[3] I

*D_NET *3 0.00186988
*CONN
*P addr[0] I
*I *5137:A I *D sg13g2_buf_1
*CAP
1 addr[0] 0.00093494
2 *5137:A 0.00093494
3 *5137:A *5148:A 0
4 *5137:A *5170:A 0
*RES
1 addr[0] *5137:A 29.7644 
*END

*D_NET *4 0.0019384
*CONN
*P addr[1] I
*I *5148:A I *D sg13g2_buf_1
*CAP
1 addr[1] 0.0009692
2 *5148:A 0.0009692
3 *5148:A *5175:A 0
4 *5148:A *13:11 0
5 *5137:A *5148:A 0
*RES
1 addr[1] *5148:A 29.167 
*END

*D_NET *5 0.00188717
*CONN
*P addr[2] I
*I *5159:A I *D sg13g2_buf_1
*CAP
1 addr[2] 0.000935857
2 *5159:A 0.000935857
3 *5159:A *5170:A 0
4 *5159:A *5181:A 1.54556e-05
*RES
1 addr[2] *5159:A 29.7644 
*END

*D_NET *6 0.00174148
*CONN
*P addr[3] I
*I *5170:A I *D sg13g2_buf_1
*CAP
1 addr[3] 0.000147192
2 *5170:A 0.000723547
3 *6:15 0.000870739
4 *5137:A *5170:A 0
5 *5159:A *5170:A 0
*RES
1 addr[3] *6:15 41.8231 
2 *6:15 *5170:A 28.8683 
*END

*D_NET *7 0.00187381
*CONN
*P addr[4] I
*I *5180:A I *D sg13g2_buf_1
*CAP
1 addr[4] 0.000936905
2 *5180:A 0.000936905
3 *5180:A *5138:A 0
4 *5180:A *5181:A 0
*RES
1 addr[4] *5180:A 29.7644 
*END

*D_NET *8 0.00207703
*CONN
*P addr[5] I
*I *5181:A I *D sg13g2_buf_1
*CAP
1 addr[5] 0.00103079
2 *5181:A 0.00103079
3 *5159:A *5181:A 1.54556e-05
4 *5180:A *5181:A 0
*RES
1 addr[5] *5181:A 29.27 
*END

*D_NET *9 0.00177465
*CONN
*P addr[6] I
*I *5182:A I *D sg13g2_buf_1
*CAP
1 addr[6] 0.000887323
2 *5182:A 0.000887323
3 *5182:A *5183:A 0
*RES
1 addr[6] *5182:A 29.27 
*END

*D_NET *10 0.00185865
*CONN
*P addr[7] I
*I *5183:A I *D sg13g2_buf_1
*CAP
1 addr[7] 0.000929327
2 *5183:A 0.000929327
3 *5183:A *5139:A 0
4 *5182:A *5183:A 0
*RES
1 addr[7] *5183:A 29.7644 
*END

*D_NET *11 0.00156004
*CONN
*P addr[8] I
*I *5184:A I *D sg13g2_buf_1
*CAP
1 addr[8] 0.000780019
2 *5184:A 0.000780019
3 *5184:A *5138:A 0
*RES
1 addr[8] *5184:A 29.6614 
*END

*D_NET *12 0.00157902
*CONN
*P addr[9] I
*I *5138:A I *D sg13g2_buf_1
*CAP
1 addr[9] 0.000789509
2 *5138:A 0.000789509
3 *5180:A *5138:A 0
4 *5184:A *5138:A 0
*RES
1 addr[9] *5138:A 29.6614 
*END

*D_NET *13 0.00545708
*CONN
*P clk I
*I *5217:A_CLK I *D RM_IHPSG13_1P_1024x32_c2_bm_bist
*CAP
1 clk 0.000501543
2 *5217:A_CLK 7.47767e-05
3 *13:17 0.00204315
4 *13:11 0.00246992
5 *5217:A_CLK *5217:A_MEN 8.67404e-05
6 *5217:A_CLK *5217:A_BIST_MEN 0
7 *13:11 *5175:A 0
8 *13:17 *88:12 0
9 *13:17 *159:12 0.000280945
10 *5148:A *13:11 0
*RES
1 clk *13:11 44.223 
2 *13:11 *13:17 43.3759 
3 *13:17 *5217:A_CLK 20.7262 
*END

*D_NET *14 0.00177592
*CONN
*P cs I
*I *5139:A I *D sg13g2_buf_1
*CAP
1 cs 0.000887961
2 *5139:A 0.000887961
3 *5139:A *5175:A 0
4 *5183:A *5139:A 0
*RES
1 cs *5139:A 29.9704 
*END

*D_NET *15 0.000915413
*CONN
*P rdata[0] O
*I *5185:X O *D sg13g2_buf_1
*CAP
1 rdata[0] 0.000457706
2 *5185:X 0.000457706
3 rdata[0] rdata[1] 0
4 rdata[0] *5152:A 0
5 rdata[0] *5217:A_DIN[0] 0
*RES
1 *5185:X rdata[0] 44.4702 
*END

*D_NET *16 0.00138692
*CONN
*P rdata[10] O
*I *5186:X O *D sg13g2_buf_1
*CAP
1 rdata[10] 0.000693458
2 *5186:X 0.000693458
3 rdata[10] *5142:A 0
*RES
1 *5186:X rdata[10] 28.6211 
*END

*D_NET *17 0.00138692
*CONN
*P rdata[11] O
*I *5187:X O *D sg13g2_buf_1
*CAP
1 rdata[11] 0.000693458
2 *5187:X 0.000693458
3 rdata[11] *5143:A 0
*RES
1 *5187:X rdata[11] 28.6211 
*END

*D_NET *18 0.00138692
*CONN
*P rdata[12] O
*I *5188:X O *D sg13g2_buf_1
*CAP
1 rdata[12] 0.000693458
2 *5188:X 0.000693458
3 rdata[12] *5144:A 0
*RES
1 *5188:X rdata[12] 28.6211 
*END

*D_NET *19 0.00138692
*CONN
*P rdata[13] O
*I *5189:X O *D sg13g2_buf_1
*CAP
1 rdata[13] 0.000693458
2 *5189:X 0.000693458
3 rdata[13] *5145:A 0
*RES
1 *5189:X rdata[13] 28.6211 
*END

*D_NET *20 0.00138692
*CONN
*P rdata[14] O
*I *5190:X O *D sg13g2_buf_1
*CAP
1 rdata[14] 0.000693458
2 *5190:X 0.000693458
3 rdata[14] *5146:A 0
*RES
1 *5190:X rdata[14] 28.6211 
*END

*D_NET *21 0.00138692
*CONN
*P rdata[15] O
*I *5191:X O *D sg13g2_buf_1
*CAP
1 rdata[15] 0.000693458
2 *5191:X 0.000693458
*RES
1 *5191:X rdata[15] 28.6211 
*END

*D_NET *22 0.00144489
*CONN
*P rdata[16] O
*I *5192:X O *D sg13g2_buf_1
*CAP
1 rdata[16] 0.000722443
2 *5192:X 0.000722443
3 rdata[16] *5178:A 0
*RES
1 *5192:X rdata[16] 28.5181 
*END

*D_NET *23 0.001379
*CONN
*P rdata[17] O
*I *5193:X O *D sg13g2_buf_1
*CAP
1 rdata[17] 0.000689501
2 *5193:X 0.000689501
3 rdata[17] *5147:A 0
*RES
1 *5193:X rdata[17] 28.5181 
*END

*D_NET *24 0.001379
*CONN
*P rdata[18] O
*I *5194:X O *D sg13g2_buf_1
*CAP
1 rdata[18] 0.000689501
2 *5194:X 0.000689501
3 rdata[18] *5149:A 0
*RES
1 *5194:X rdata[18] 28.5181 
*END

*D_NET *25 0.00138302
*CONN
*P rdata[19] O
*I *5195:X O *D sg13g2_buf_1
*CAP
1 rdata[19] 0.000691508
2 *5195:X 0.000691508
3 rdata[19] *5150:A 0
*RES
1 *5195:X rdata[19] 28.5181 
*END

*D_NET *26 0.00121147
*CONN
*P rdata[1] O
*I *5196:X O *D sg13g2_buf_1
*CAP
1 rdata[1] 0.000605734
2 *5196:X 0.000605734
3 rdata[1] *5140:A 0
4 rdata[1] *5152:A 0
5 rdata[1] *5217:A_DIN[0] 0
6 rdata[1] *111:8 0
7 rdata[0] rdata[1] 0
*RES
1 *5196:X rdata[1] 44.9028 
*END

*D_NET *27 0.00138345
*CONN
*P rdata[20] O
*I *5197:X O *D sg13g2_buf_1
*CAP
1 rdata[20] 0.000691724
2 *5197:X 0.000691724
3 rdata[20] *5151:A 0
*RES
1 *5197:X rdata[20] 28.5181 
*END

*D_NET *28 0.001379
*CONN
*P rdata[21] O
*I *5198:X O *D sg13g2_buf_1
*CAP
1 rdata[21] 0.000689501
2 *5198:X 0.000689501
3 rdata[21] *5153:A 0
*RES
1 *5198:X rdata[21] 28.5181 
*END

*D_NET *29 0.001379
*CONN
*P rdata[22] O
*I *5199:X O *D sg13g2_buf_1
*CAP
1 rdata[22] 0.000689501
2 *5199:X 0.000689501
3 rdata[22] *5154:A 0
*RES
1 *5199:X rdata[22] 28.5181 
*END

*D_NET *30 0.001379
*CONN
*P rdata[23] O
*I *5200:X O *D sg13g2_buf_1
*CAP
1 rdata[23] 0.000689501
2 *5200:X 0.000689501
3 rdata[23] *5155:A 0
*RES
1 *5200:X rdata[23] 28.5181 
*END

*D_NET *31 0.00265881
*CONN
*P rdata[24] O
*I *5201:X O *D sg13g2_buf_1
*CAP
1 rdata[24] 0.000505431
2 *5201:X 0.000433831
3 *31:10 0.000939262
4 rdata[24] rdata[25] 0
5 rdata[24] *62:11 0
6 *31:10 *5179:A 0.000599095
7 *31:10 *62:11 0.000181192
*RES
1 *5201:X *31:10 45.3354 
2 *31:10 rdata[24] 24.2745 
*END

*D_NET *32 0.00258251
*CONN
*P rdata[25] O
*I *5202:X O *D sg13g2_buf_1
*CAP
1 rdata[25] 0.00084953
2 *5202:X 0.000158404
3 *32:8 0.00100793
4 rdata[25] *5156:A 0.000566638
5 rdata[25] *5157:A 0
6 rdata[25] *5179:A 0
7 rdata[24] rdata[25] 0
*RES
1 *5202:X *32:8 41.8334 
2 *32:8 rdata[25] 28.1679 
*END

*D_NET *33 0.00138856
*CONN
*P rdata[26] O
*I *5203:X O *D sg13g2_buf_1
*CAP
1 rdata[26] 0.000694282
2 *5203:X 0.000694282
3 rdata[26] *5158:A 0
*RES
1 *5203:X rdata[26] 28.6211 
*END

*D_NET *34 0.00138692
*CONN
*P rdata[27] O
*I *5204:X O *D sg13g2_buf_1
*CAP
1 rdata[27] 0.000693458
2 *5204:X 0.000693458
3 rdata[27] *5160:A 0
*RES
1 *5204:X rdata[27] 28.6211 
*END

*D_NET *35 0.001379
*CONN
*P rdata[28] O
*I *5205:X O *D sg13g2_buf_1
*CAP
1 rdata[28] 0.000689501
2 *5205:X 0.000689501
3 rdata[28] *5161:A 0
*RES
1 *5205:X rdata[28] 28.5181 
*END

*D_NET *36 0.001379
*CONN
*P rdata[29] O
*I *5206:X O *D sg13g2_buf_1
*CAP
1 rdata[29] 0.000689501
2 *5206:X 0.000689501
3 rdata[29] *5162:A 0
*RES
1 *5206:X rdata[29] 28.5181 
*END

*D_NET *37 0.00138692
*CONN
*P rdata[2] O
*I *5207:X O *D sg13g2_buf_1
*CAP
1 rdata[2] 0.000693458
2 *5207:X 0.000693458
3 rdata[2] *5167:A 0
*RES
1 *5207:X rdata[2] 28.6211 
*END

*D_NET *38 0.001379
*CONN
*P rdata[30] O
*I *5208:X O *D sg13g2_buf_1
*CAP
1 rdata[30] 0.000689501
2 *5208:X 0.000689501
3 rdata[30] *5163:A 0
*RES
1 *5208:X rdata[30] 28.5181 
*END

*D_NET *39 0.001379
*CONN
*P rdata[31] O
*I *5209:X O *D sg13g2_buf_1
*CAP
1 rdata[31] 0.000689501
2 *5209:X 0.000689501
3 rdata[31] *5165:A 0
*RES
1 *5209:X rdata[31] 28.5181 
*END

*D_NET *40 0.00138975
*CONN
*P rdata[3] O
*I *5210:X O *D sg13g2_buf_1
*CAP
1 rdata[3] 0.000694875
2 *5210:X 0.000694875
3 rdata[3] *5168:A 0
*RES
1 *5210:X rdata[3] 28.6211 
*END

*D_NET *41 0.00138692
*CONN
*P rdata[4] O
*I *5211:X O *D sg13g2_buf_1
*CAP
1 rdata[4] 0.000693458
2 *5211:X 0.000693458
3 rdata[4] *5169:A 0
*RES
1 *5211:X rdata[4] 28.6211 
*END

*D_NET *42 0.001379
*CONN
*P rdata[5] O
*I *5212:X O *D sg13g2_buf_1
*CAP
1 rdata[5] 0.000689501
2 *5212:X 0.000689501
3 rdata[5] *5171:A 0
*RES
1 *5212:X rdata[5] 28.5181 
*END

*D_NET *43 0.001379
*CONN
*P rdata[6] O
*I *5213:X O *D sg13g2_buf_1
*CAP
1 rdata[6] 0.000689501
2 *5213:X 0.000689501
3 rdata[6] *5172:A 0
*RES
1 *5213:X rdata[6] 28.5181 
*END

*D_NET *44 0.001379
*CONN
*P rdata[7] O
*I *5214:X O *D sg13g2_buf_1
*CAP
1 rdata[7] 0.000689501
2 *5214:X 0.000689501
3 rdata[7] *5173:A 0
*RES
1 *5214:X rdata[7] 28.5181 
*END

*D_NET *45 0.0016856
*CONN
*P rdata[8] O
*I *5215:X O *D sg13g2_buf_1
*CAP
1 rdata[8] 0.000842798
2 *5215:X 0.000842798
3 rdata[8] *5177:A 0
*RES
1 *5215:X rdata[8] 28.5181 
*END

*D_NET *46 0.001379
*CONN
*P rdata[9] O
*I *5216:X O *D sg13g2_buf_1
*CAP
1 rdata[9] 0.000689501
2 *5216:X 0.000689501
3 rdata[9] *5141:A 0
*RES
1 *5216:X rdata[9] 28.5181 
*END

*D_NET *47 0.000828026
*CONN
*P wdata[0] I
*I *5140:A I *D sg13g2_buf_1
*CAP
1 wdata[0] 0.000414013
2 *5140:A 0.000414013
3 *5140:A *111:8 0
4 rdata[1] *5140:A 0
*RES
1 wdata[0] *5140:A 44.1303 
*END

*D_NET *48 0.00156985
*CONN
*P wdata[10] I
*I *5141:A I *D sg13g2_buf_1
*CAP
1 wdata[10] 0.000784925
2 *5141:A 0.000784925
3 *5141:A *5216:A 0
4 rdata[9] *5141:A 0
*RES
1 wdata[10] *5141:A 29.7644 
*END

*D_NET *49 0.00160806
*CONN
*P wdata[11] I
*I *5142:A I *D sg13g2_buf_1
*CAP
1 wdata[11] 0.000804031
2 *5142:A 0.000804031
3 *5142:A *193:19 0
4 rdata[10] *5142:A 0
*RES
1 wdata[11] *5142:A 29.9704 
*END

*D_NET *50 0.00167143
*CONN
*P wdata[12] I
*I *5143:A I *D sg13g2_buf_1
*CAP
1 wdata[12] 0.000835717
2 *5143:A 0.000835717
3 *5143:A *194:19 0
4 rdata[11] *5143:A 0
*RES
1 wdata[12] *5143:A 30.4648 
*END

*D_NET *51 0.00156985
*CONN
*P wdata[13] I
*I *5144:A I *D sg13g2_buf_1
*CAP
1 wdata[13] 0.000784925
2 *5144:A 0.000784925
3 *5144:A *195:19 0
4 rdata[12] *5144:A 0
*RES
1 wdata[13] *5144:A 29.7644 
*END

*D_NET *52 0.00156985
*CONN
*P wdata[14] I
*I *5145:A I *D sg13g2_buf_1
*CAP
1 wdata[14] 0.000784925
2 *5145:A 0.000784925
3 *5145:A *5189:A 0
4 rdata[13] *5145:A 0
*RES
1 wdata[14] *5145:A 29.7644 
*END

*D_NET *53 0.0015964
*CONN
*P wdata[15] I
*I *5146:A I *D sg13g2_buf_1
*CAP
1 wdata[15] 0.000798201
2 *5146:A 0.000798201
3 *5146:A *197:19 0
4 rdata[14] *5146:A 0
*RES
1 wdata[15] *5146:A 29.9704 
*END

*D_NET *54 0.00158849
*CONN
*P wdata[16] I
*I *5147:A I *D sg13g2_buf_1
*CAP
1 wdata[16] 0.000794244
2 *5147:A 0.000794244
3 *5147:A *5178:A 0
4 *5147:A *5193:A 0
5 rdata[17] *5147:A 0
*RES
1 wdata[16] *5147:A 29.8674 
*END

*D_NET *55 0.00156004
*CONN
*P wdata[17] I
*I *5149:A I *D sg13g2_buf_1
*CAP
1 wdata[17] 0.000780019
2 *5149:A 0.000780019
3 rdata[18] *5149:A 0
*RES
1 wdata[17] *5149:A 29.6614 
*END

*D_NET *56 0.00156004
*CONN
*P wdata[18] I
*I *5150:A I *D sg13g2_buf_1
*CAP
1 wdata[18] 0.000780019
2 *5150:A 0.000780019
3 rdata[19] *5150:A 0
*RES
1 wdata[18] *5150:A 29.6614 
*END

*D_NET *57 0.00160479
*CONN
*P wdata[19] I
*I *5151:A I *D sg13g2_buf_1
*CAP
1 wdata[19] 0.000802396
2 *5151:A 0.000802396
3 rdata[20] *5151:A 0
*RES
1 wdata[19] *5151:A 29.8674 
*END

*D_NET *58 0.000928842
*CONN
*P wdata[1] I
*I *5152:A I *D sg13g2_buf_1
*CAP
1 wdata[1] 0.000464421
2 *5152:A 0.000464421
3 rdata[0] *5152:A 0
4 rdata[1] *5152:A 0
*RES
1 wdata[1] *5152:A 43.6977 
*END

*D_NET *59 0.00156004
*CONN
*P wdata[20] I
*I *5153:A I *D sg13g2_buf_1
*CAP
1 wdata[20] 0.000780019
2 *5153:A 0.000780019
3 rdata[21] *5153:A 0
*RES
1 wdata[20] *5153:A 29.6614 
*END

*D_NET *60 0.00158849
*CONN
*P wdata[21] I
*I *5154:A I *D sg13g2_buf_1
*CAP
1 wdata[21] 0.000794244
2 *5154:A 0.000794244
3 *5154:A *5199:A 0
4 rdata[22] *5154:A 0
*RES
1 wdata[21] *5154:A 29.8674 
*END

*D_NET *61 0.00158849
*CONN
*P wdata[22] I
*I *5155:A I *D sg13g2_buf_1
*CAP
1 wdata[22] 0.000794244
2 *5155:A 0.000794244
3 rdata[23] *5155:A 0
*RES
1 wdata[22] *5155:A 29.8674 
*END

*D_NET *62 0.00336053
*CONN
*P wdata[23] I
*I *5156:A I *D sg13g2_buf_1
*CAP
1 wdata[23] 0.000626052
2 *5156:A 0.000348338
3 *62:11 0.000974391
4 *5156:A *5157:A 0
5 *5156:A *5179:A 0.000663921
6 *62:11 *5157:A 0
7 rdata[24] *62:11 0
8 rdata[25] *5156:A 0.000566638
9 *31:10 *62:11 0.000181192
*RES
1 wdata[23] *62:11 45.8298 
2 *62:11 *5156:A 24.429 
*END

*D_NET *63 0.00179605
*CONN
*P wdata[24] I
*I *5157:A I *D sg13g2_buf_1
*CAP
1 wdata[24] 0.000898023
2 *5157:A 0.000898023
3 rdata[25] *5157:A 0
4 *5156:A *5157:A 0
5 *62:11 *5157:A 0
*RES
1 wdata[24] *5157:A 29.7644 
*END

*D_NET *64 0.00160428
*CONN
*P wdata[25] I
*I *5158:A I *D sg13g2_buf_1
*CAP
1 wdata[25] 0.00080214
2 *5158:A 0.00080214
3 rdata[26] *5158:A 0
*RES
1 wdata[25] *5158:A 29.9704 
*END

*D_NET *65 0.0015964
*CONN
*P wdata[26] I
*I *5160:A I *D sg13g2_buf_1
*CAP
1 wdata[26] 0.000798201
2 *5160:A 0.000798201
3 rdata[27] *5160:A 0
*RES
1 wdata[26] *5160:A 29.9704 
*END

*D_NET *66 0.00158849
*CONN
*P wdata[27] I
*I *5161:A I *D sg13g2_buf_1
*CAP
1 wdata[27] 0.000794244
2 *5161:A 0.000794244
3 rdata[28] *5161:A 0
*RES
1 wdata[27] *5161:A 29.8674 
*END

*D_NET *67 0.00158849
*CONN
*P wdata[28] I
*I *5162:A I *D sg13g2_buf_1
*CAP
1 wdata[28] 0.000794244
2 *5162:A 0.000794244
3 rdata[29] *5162:A 0
*RES
1 wdata[28] *5162:A 29.8674 
*END

*D_NET *68 0.00158849
*CONN
*P wdata[29] I
*I *5163:A I *D sg13g2_buf_1
*CAP
1 wdata[29] 0.000794244
2 *5163:A 0.000794244
3 rdata[30] *5163:A 0
*RES
1 wdata[29] *5163:A 29.8674 
*END

*D_NET *69 0.00156985
*CONN
*P wdata[2] I
*I *5164:A I *D sg13g2_buf_1
*CAP
1 wdata[2] 0.000784925
2 *5164:A 0.000784925
*RES
1 wdata[2] *5164:A 29.7644 
*END

*D_NET *70 0.00158849
*CONN
*P wdata[30] I
*I *5165:A I *D sg13g2_buf_1
*CAP
1 wdata[30] 0.000794244
2 *5165:A 0.000794244
3 rdata[31] *5165:A 0
*RES
1 wdata[30] *5165:A 29.8674 
*END

*D_NET *71 0.00156004
*CONN
*P wdata[31] I
*I *5166:A I *D sg13g2_buf_1
*CAP
1 wdata[31] 0.000780019
2 *5166:A 0.000780019
*RES
1 wdata[31] *5166:A 29.6614 
*END

*D_NET *72 0.00156985
*CONN
*P wdata[3] I
*I *5167:A I *D sg13g2_buf_1
*CAP
1 wdata[3] 0.000784925
2 *5167:A 0.000784925
3 *5167:A *5207:A 0
4 rdata[2] *5167:A 0
*RES
1 wdata[3] *5167:A 29.7644 
*END

*D_NET *73 0.00158703
*CONN
*P wdata[4] I
*I *5168:A I *D sg13g2_buf_1
*CAP
1 wdata[4] 0.000793515
2 *5168:A 0.000793515
3 rdata[3] *5168:A 0
*RES
1 wdata[4] *5168:A 29.7644 
*END

*D_NET *74 0.00156985
*CONN
*P wdata[5] I
*I *5169:A I *D sg13g2_buf_1
*CAP
1 wdata[5] 0.000784925
2 *5169:A 0.000784925
3 *5169:A *220:19 0
4 rdata[4] *5169:A 0
*RES
1 wdata[5] *5169:A 29.7644 
*END

*D_NET *75 0.00156027
*CONN
*P wdata[6] I
*I *5171:A I *D sg13g2_buf_1
*CAP
1 wdata[6] 0.000780134
2 *5171:A 0.000780134
3 *5171:A *5212:A 0
4 rdata[5] *5171:A 0
*RES
1 wdata[6] *5171:A 29.6614 
*END

*D_NET *76 0.00158849
*CONN
*P wdata[7] I
*I *5172:A I *D sg13g2_buf_1
*CAP
1 wdata[7] 0.000794244
2 *5172:A 0.000794244
3 *5172:A *5213:A 0
4 rdata[6] *5172:A 0
*RES
1 wdata[7] *5172:A 29.8674 
*END

*D_NET *77 0.00158426
*CONN
*P wdata[8] I
*I *5173:A I *D sg13g2_buf_1
*CAP
1 wdata[8] 0.000792131
2 *5173:A 0.000792131
3 *5173:A *5214:A 0
4 rdata[7] *5173:A 0
*RES
1 wdata[8] *5173:A 29.8674 
*END

*D_NET *78 0.00156004
*CONN
*P wdata[9] I
*I *5174:A I *D sg13g2_buf_1
*CAP
1 wdata[9] 0.000780019
2 *5174:A 0.000780019
3 *5174:A *5177:A 0
*RES
1 wdata[9] *5174:A 29.6614 
*END

*D_NET *79 0.00192007
*CONN
*P we I
*I *5175:A I *D sg13g2_buf_1
*CAP
1 we 0.000960037
2 *5175:A 0.000960037
3 *5139:A *5175:A 0
4 *5148:A *5175:A 0
5 *13:11 *5175:A 0
*RES
1 we *5175:A 29.8674 
*END

*D_NET *80 0.00148175
*CONN
*P wmask[0] I
*I *5176:A I *D sg13g2_buf_1
*CAP
1 wmask[0] 0.000740876
2 *5176:A 0.000740876
*RES
1 wmask[0] *5176:A 29.167 
*END

*D_NET *81 0.00180356
*CONN
*P wmask[1] I
*I *5177:A I *D sg13g2_buf_1
*CAP
1 wmask[1] 0.000894053
2 *5177:A 0.000894053
3 *5177:A *5215:A 1.54556e-05
4 rdata[8] *5177:A 0
5 *5174:A *5177:A 0
*RES
1 wmask[1] *5177:A 29.167 
*END

*D_NET *82 0.00165437
*CONN
*P wmask[2] I
*I *5178:A I *D sg13g2_buf_1
*CAP
1 wmask[2] 0.000827186
2 *5178:A 0.000827186
3 rdata[16] *5178:A 0
4 *5147:A *5178:A 0
*RES
1 wmask[2] *5178:A 29.8674 
*END

*D_NET *83 0.00319224
*CONN
*P wmask[3] I
*I *5179:A I *D sg13g2_buf_1
*CAP
1 wmask[3] 0.00096461
2 *5179:A 0.00096461
3 rdata[25] *5179:A 0
4 *5156:A *5179:A 0.000663921
5 *31:10 *5179:A 0.000599095
*RES
1 wmask[3] *5179:A 30.8974 
*END

*D_NET *84 0.00369716
*CONN
*I *5217:A_MEN I *D RM_IHPSG13_1P_1024x32_c2_bm_bist
*I *5135:Y O *D sg13g2_inv_1
*CAP
1 *5217:A_MEN 0.000440623
2 *5135:Y 0.000166021
3 *84:16 0.000970845
4 *84:8 0.000696243
5 *5217:A_MEN *5217:A_ADDR[1] 0.000534114
6 *5217:A_MEN *5217:A_BIST_CLK 0
7 *5217:A_MEN *5217:A_BIST_MEN 0
8 *84:8 *85:8 0.000231627
9 *84:16 *5217:A_ADDR[1] 7.44263e-05
10 *84:16 *88:12 0.00024826
11 *84:16 *159:12 0.00024826
12 *5217:A_CLK *5217:A_MEN 8.67404e-05
*RES
1 *5135:Y *84:8 41.8334 
2 *84:8 *84:16 45.0573 
3 *84:16 *5217:A_MEN 24.9904 
*END

*D_NET *85 0.00371432
*CONN
*I *5217:A_WEN I *D RM_IHPSG13_1P_1024x32_c2_bm_bist
*I *5134:Y O *D sg13g2_inv_1
*CAP
1 *5217:A_WEN 5.04967e-05
2 *5134:Y 0.000153098
3 *85:16 0.000794735
4 *85:8 0.000897337
5 *5217:A_WEN *5217:A_REN 1.21218e-05
6 *5217:A_WEN *5217:A_BIST_EN 9.86457e-05
7 *85:16 *86:18 0.000637623
8 *85:16 *88:12 0.000838635
9 *85:16 *181:16 0
10 *84:8 *85:8 0.000231627
*RES
1 *5134:Y *85:8 41.5862 
2 *85:8 *85:16 48.7653 
3 *85:16 *5217:A_WEN 20.5098 
*END

*D_NET *86 0.0040342
*CONN
*I *5217:A_REN I *D RM_IHPSG13_1P_1024x32_c2_bm_bist
*I *5136:Y O *D sg13g2_nand2b_1
*CAP
1 *5217:A_REN 0.000227029
2 *5136:Y 0.000719341
3 *86:18 0.000547352
4 *86:12 0.00103966
5 *5217:A_REN *5217:A_BIST_EN 0
6 *5217:A_REN *5217:A_BIST_REN 0
7 *5217:A_REN *5217:A_BIST_WEN 0
8 *5217:A_REN *153:10 0
9 *86:12 *5134:A 0
10 *86:12 *159:6 0.000851069
11 *86:18 *181:16 0
12 *5217:A_WEN *5217:A_REN 1.21218e-05
13 *85:16 *86:18 0.000637623
*RES
1 *5136:Y *86:12 47.6323 
2 *86:12 *86:18 44.2127 
3 *86:18 *5217:A_REN 22.2917 
*END

*D_NET *87 0.000939831
*CONN
*I *5217:A_BIST_ADDR[3] I *D RM_IHPSG13_1P_1024x32_c2_bm_bist
*I *5279:L_LO O *D sg13g2_tielo
*CAP
1 *5217:A_BIST_ADDR[3] 0.000415616
2 *5279:L_LO 0.000415616
3 *5217:A_BIST_ADDR[3] *5217:A_BIST_ADDR[0] 0
4 *5217:A_BIST_ADDR[3] *5217:A_ADDR[2] 7.65053e-05
5 *5217:A_BIST_ADDR[3] *5217:A_BIST_ADDR[2] 0
6 *5217:A_BIST_ADDR[3] *5217:A_ADDR[3] 3.20946e-05
*RES
1 *5279:L_LO *5217:A_BIST_ADDR[3] 24.2796 
*END

*D_NET *88 0.00489584
*CONN
*I *5217:A_ADDR[0] I *D RM_IHPSG13_1P_1024x32_c2_bm_bist
*I *5137:X O *D sg13g2_buf_1
*CAP
1 *5217:A_ADDR[0] 0.000130811
2 *5137:X 0.00124005
3 *88:12 0.000585031
4 *88:6 0.00169427
5 *5217:A_ADDR[0] *5217:A_ADDR[1] 7.20446e-05
6 *5217:A_ADDR[0] *5217:A_BIST_EN 8.67404e-05
7 *88:6 *159:6 0
8 *88:6 *181:8 0
9 *13:17 *88:12 0
10 *84:16 *88:12 0.00024826
11 *85:16 *88:12 0.000838635
*RES
1 *5137:X *88:6 31.5669 
2 *88:6 *88:12 45.5105 
3 *88:12 *5217:A_ADDR[0] 41.1948 
*END

*D_NET *89 0.00303186
*CONN
*I *5217:A_ADDR[9] I *D RM_IHPSG13_1P_1024x32_c2_bm_bist
*I *5138:X O *D sg13g2_buf_1
*CAP
1 *5217:A_ADDR[9] 9.75458e-05
2 *5138:X 0.000550159
3 *89:14 0.000938136
4 *89:10 0.00139075
5 *5217:A_ADDR[9] *5217:A_ADDR[4] 0
6 *5217:A_ADDR[9] *5217:A_BIST_ADDR[4] 0
7 *5217:A_ADDR[9] *5217:A_BIST_ADDR[9] 5.52706e-05
8 *89:10 *192:8 0
9 *89:10 *236:8 0
10 *89:14 *192:16 0
*RES
1 *5138:X *89:10 46.077 
2 *89:10 *89:14 31.1343 
3 *89:14 *5217:A_ADDR[9] 40.9425 
*END

*D_NET *90 0.000728191
*CONN
*I *5217:A_BIST_BM[13] I *D RM_IHPSG13_1P_1024x32_c2_bm_bist
*I *5219:L_LO O *D sg13g2_tielo
*CAP
1 *5217:A_BIST_BM[13] 0.000293501
2 *5219:L_LO 0.000293501
3 *90:11 0
4 *5217:A_BIST_BM[13] *196:11 0.000141189
*RES
1 *5219:L_LO *5217:A_BIST_BM[13] 23.4376 
2 *5217:A_BIST_BM[13] *90:11 0.137333 
*END

*D_NET *91 0.000649239
*CONN
*I *5217:A_BIST_BM[14] I *D RM_IHPSG13_1P_1024x32_c2_bm_bist
*I *5220:L_LO O *D sg13g2_tielo
*CAP
1 *5217:A_BIST_BM[14] 0.00032462
2 *5220:L_LO 0.00032462
3 *5217:A_BIST_BM[14] *197:13 0
*RES
1 *5220:L_LO *5217:A_BIST_BM[14] 23.7621 
*END

*D_NET *92 0.000635435
*CONN
*I *5217:A_BIST_BM[15] I *D RM_IHPSG13_1P_1024x32_c2_bm_bist
*I *5221:L_LO O *D sg13g2_tielo
*CAP
1 *5217:A_BIST_BM[15] 0.000317717
2 *5221:L_LO 0.000317717
3 *5217:A_BIST_BM[15] *198:13 0
*RES
1 *5221:L_LO *5217:A_BIST_BM[15] 23.5561 
*END

*D_NET *93 0.00065553
*CONN
*I *5217:A_BIST_BM[16] I *D RM_IHPSG13_1P_1024x32_c2_bm_bist
*I *5222:L_LO O *D sg13g2_tielo
*CAP
1 *5217:A_BIST_BM[16] 0.000327765
2 *5222:L_LO 0.000327765
3 *93:15 0
4 *5217:A_BIST_BM[16] *199:11 0
*RES
1 *5222:L_LO *5217:A_BIST_BM[16] 23.7672 
2 *5217:A_BIST_BM[16] *93:15 0.137333 
*END

*D_NET *94 0.000659996
*CONN
*I *5217:A_BIST_BM[17] I *D RM_IHPSG13_1P_1024x32_c2_bm_bist
*I *5223:L_LO O *D sg13g2_tielo
*CAP
1 *5217:A_BIST_BM[17] 0.000329998
2 *5223:L_LO 0.000329998
3 *5217:A_BIST_BM[17] *200:9 0
*RES
1 *5223:L_LO *5217:A_BIST_BM[17] 23.726 
*END

*D_NET *95 0.000641448
*CONN
*I *5217:A_BIST_BM[18] I *D RM_IHPSG13_1P_1024x32_c2_bm_bist
*I *5224:L_LO O *D sg13g2_tielo
*CAP
1 *5217:A_BIST_BM[18] 0.000320724
2 *5224:L_LO 0.000320724
3 *5217:A_BIST_BM[18] *201:11 0
*RES
1 *5224:L_LO *5217:A_BIST_BM[18] 23.4557 
*END

*D_NET *96 0.000657018
*CONN
*I *5217:A_BIST_BM[19] I *D RM_IHPSG13_1P_1024x32_c2_bm_bist
*I *5225:L_LO O *D sg13g2_tielo
*CAP
1 *5217:A_BIST_BM[19] 0.000328509
2 *5225:L_LO 0.000328509
3 *5217:A_BIST_BM[19] *202:11 0
*RES
1 *5225:L_LO *5217:A_BIST_BM[19] 23.7672 
*END

*D_NET *97 0.000629478
*CONN
*I *5217:A_BIST_BM[20] I *D RM_IHPSG13_1P_1024x32_c2_bm_bist
*I *5226:L_LO O *D sg13g2_tielo
*CAP
1 *5217:A_BIST_BM[20] 0.000314739
2 *5226:L_LO 0.000314739
3 *5217:A_BIST_BM[20] *205:11 0
*RES
1 *5226:L_LO *5217:A_BIST_BM[20] 23.4557 
*END

*D_NET *98 0.00067606
*CONN
*I *5217:A_BIST_BM[21] I *D RM_IHPSG13_1P_1024x32_c2_bm_bist
*I *5227:L_LO O *D sg13g2_tielo
*CAP
1 *5217:A_BIST_BM[21] 0.00033803
2 *5227:L_LO 0.00033803
3 *5217:A_BIST_BM[21] *206:11 0
*RES
1 *5227:L_LO *5217:A_BIST_BM[21] 23.7621 
*END

*D_NET *99 0.000653138
*CONN
*I *5217:A_BIST_BM[22] I *D RM_IHPSG13_1P_1024x32_c2_bm_bist
*I *5228:L_LO O *D sg13g2_tielo
*CAP
1 *5217:A_BIST_BM[22] 0.000326569
2 *5228:L_LO 0.000326569
3 *5217:A_BIST_BM[22] *207:9 0
*RES
1 *5228:L_LO *5217:A_BIST_BM[22] 23.7054 
*END

*D_NET *100 0.0026572
*CONN
*I *5135:A I *D sg13g2_inv_1
*I *5136:B I *D sg13g2_nand2b_1
*I *5139:X O *D sg13g2_buf_1
*CAP
1 *5135:A 0.000378492
2 *5136:B 0
3 *5139:X 0.000481529
4 *100:12 9.66882e-05
5 *100:6 0.000956708
6 *5135:A *5134:A 0.000194355
7 *5135:A *186:12 1.54008e-05
8 *100:6 *186:12 0.000534026
*RES
1 *5139:X *100:6 25.5105 
2 *100:6 *100:12 41.0918 
3 *100:12 *5136:B 20 
4 *100:6 *5135:A 24.3466 
*END

*D_NET *101 0.000631376
*CONN
*I *5217:A_BIST_BM[23] I *D RM_IHPSG13_1P_1024x32_c2_bm_bist
*I *5229:L_LO O *D sg13g2_tielo
*CAP
1 *5217:A_BIST_BM[23] 0.000315688
2 *5229:L_LO 0.000315688
3 *101:14 0
4 *5217:A_BIST_BM[23] *208:11 0
*RES
1 *5229:L_LO *5217:A_BIST_BM[23] 23.4814 
2 *5217:A_BIST_BM[23] *101:14 0.137333 
*END

*D_NET *102 0.000687562
*CONN
*I *5217:A_BIST_BM[24] I *D RM_IHPSG13_1P_1024x32_c2_bm_bist
*I *5230:L_LO O *D sg13g2_tielo
*CAP
1 *5217:A_BIST_BM[24] 0.000343781
2 *5230:L_LO 0.000343781
3 *5217:A_BIST_BM[24] *209:9 0
*RES
1 *5230:L_LO *5217:A_BIST_BM[24] 23.7466 
*END

*D_NET *103 0.000654656
*CONN
*I *5217:A_BIST_BM[25] I *D RM_IHPSG13_1P_1024x32_c2_bm_bist
*I *5231:L_LO O *D sg13g2_tielo
*CAP
1 *5217:A_BIST_BM[25] 0.000327328
2 *5231:L_LO 0.000327328
3 *5217:A_BIST_BM[25] *210:11 0
*RES
1 *5231:L_LO *5217:A_BIST_BM[25] 23.5406 
*END

*D_NET *104 0.000698231
*CONN
*I *5217:A_BIST_BM[26] I *D RM_IHPSG13_1P_1024x32_c2_bm_bist
*I *5232:L_LO O *D sg13g2_tielo
*CAP
1 *5217:A_BIST_BM[26] 0.000349116
2 *5232:L_LO 0.000349116
3 *5217:A_BIST_BM[26] *211:11 0
*RES
1 *5232:L_LO *5217:A_BIST_BM[26] 23.7827 
*END

*D_NET *105 0.000633107
*CONN
*I *5217:A_BIST_BM[27] I *D RM_IHPSG13_1P_1024x32_c2_bm_bist
*I *5233:L_LO O *D sg13g2_tielo
*CAP
1 *5217:A_BIST_BM[27] 0.000316553
2 *5233:L_LO 0.000316553
3 *5217:A_BIST_BM[27] *5217:A_DIN[26] 0
4 *5217:A_BIST_BM[27] *212:11 0
*RES
1 *5233:L_LO *5217:A_BIST_BM[27] 23.4557 
*END

*D_NET *106 0.000691482
*CONN
*I *5217:A_BIST_BM[28] I *D RM_IHPSG13_1P_1024x32_c2_bm_bist
*I *5234:L_LO O *D sg13g2_tielo
*CAP
1 *5217:A_BIST_BM[28] 0.000345741
2 *5234:L_LO 0.000345741
3 *106:13 0
4 *5217:A_BIST_BM[28] *213:11 0
*RES
1 *5234:L_LO *5217:A_BIST_BM[28] 23.6642 
2 *5217:A_BIST_BM[28] *106:13 0.137333 
*END

*D_NET *107 0.000685077
*CONN
*I *5217:A_BIST_BM[29] I *D RM_IHPSG13_1P_1024x32_c2_bm_bist
*I *5235:L_LO O *D sg13g2_tielo
*CAP
1 *5217:A_BIST_BM[29] 0.000342538
2 *5235:L_LO 0.000342538
3 *5217:A_BIST_BM[29] *215:11 0
*RES
1 *5235:L_LO *5217:A_BIST_BM[29] 23.726 
*END

*D_NET *108 0.000656697
*CONN
*I *5217:A_BIST_BM[30] I *D RM_IHPSG13_1P_1024x32_c2_bm_bist
*I *5236:L_LO O *D sg13g2_tielo
*CAP
1 *5217:A_BIST_BM[30] 0.000328348
2 *5236:L_LO 0.000328348
3 *5217:A_BIST_BM[30] *217:11 0
*RES
1 *5236:L_LO *5217:A_BIST_BM[30] 23.4557 
*END

*D_NET *109 0.000667667
*CONN
*I *5217:A_BIST_BM[31] I *D RM_IHPSG13_1P_1024x32_c2_bm_bist
*I *5237:L_LO O *D sg13g2_tielo
*CAP
1 *5217:A_BIST_BM[31] 0.000333834
2 *5237:L_LO 0.000333834
3 *5217:A_BIST_BM[31] *218:11 0
*RES
1 *5237:L_LO *5217:A_BIST_BM[31] 23.7672 
*END

*D_NET *110 0.000896877
*CONN
*I *5217:A_BIST_CLK I *D RM_IHPSG13_1P_1024x32_c2_bm_bist
*I *5238:L_LO O *D sg13g2_tielo
*CAP
1 *5217:A_BIST_CLK 0.000280507
2 *5238:L_LO 0.000280507
3 *5217:A_BIST_CLK *5217:A_BIST_MEN 0.000335862
4 *5217:A_MEN *5217:A_BIST_CLK 0
*RES
1 *5238:L_LO *5217:A_BIST_CLK 23.4557 
*END

*D_NET *111 0.00479899
*CONN
*I *5217:A_DIN[0] I *D RM_IHPSG13_1P_1024x32_c2_bm_bist
*I *5140:X O *D sg13g2_buf_1
*CAP
1 *5217:A_DIN[0] 0.0019124
2 *5140:X 0.000147738
3 *111:8 0.00206013
4 *5217:A_DIN[0] *5217:A_BIST_DIN[0] 0
5 *5217:A_DIN[0] *112:10 0.00067872
6 *5217:A_DIN[0] *204:27 0
7 rdata[0] *5217:A_DIN[0] 0
8 rdata[1] *5217:A_DIN[0] 0
9 rdata[1] *111:8 0
10 *5140:A *111:8 0
*RES
1 *5140:X *111:8 41.1845 
2 *111:8 *5217:A_DIN[0] 44.8385 
*END

*D_NET *112 0.0015928
*CONN
*I *5217:A_BIST_DIN[0] I *D RM_IHPSG13_1P_1024x32_c2_bm_bist
*I *5239:L_LO O *D sg13g2_tielo
*CAP
1 *5217:A_BIST_DIN[0] 8.00589e-05
2 *5239:L_LO 0.000376982
3 *112:10 0.000457041
4 *5217:A_DIN[0] *5217:A_BIST_DIN[0] 0
5 *5217:A_DIN[0] *112:10 0.00067872
*RES
1 *5239:L_LO *112:10 45.1809 
2 *112:10 *5217:A_BIST_DIN[0] 20.7262 
*END

*D_NET *113 0.00068591
*CONN
*I *5217:A_BIST_DIN[1] I *D RM_IHPSG13_1P_1024x32_c2_bm_bist
*I *5240:L_LO O *D sg13g2_tielo
*CAP
1 *5217:A_BIST_DIN[1] 0.000342955
2 *5240:L_LO 0.000342955
3 *113:13 0
4 *5217:A_BIST_DIN[1] *5217:A_DIN[1] 0
*RES
1 *5240:L_LO *5217:A_BIST_DIN[1] 23.7054 
2 *5217:A_BIST_DIN[1] *113:13 0.137333 
*END

*D_NET *114 0.000642563
*CONN
*I *5217:A_BIST_DIN[2] I *D RM_IHPSG13_1P_1024x32_c2_bm_bist
*I *5241:L_LO O *D sg13g2_tielo
*CAP
1 *5217:A_BIST_DIN[2] 0.000321281
2 *5241:L_LO 0.000321281
3 *5217:A_BIST_DIN[2] *5217:A_DIN[2] 0
*RES
1 *5241:L_LO *5217:A_BIST_DIN[2] 23.4557 
*END

*D_NET *115 0.000677406
*CONN
*I *5217:A_BIST_DIN[3] I *D RM_IHPSG13_1P_1024x32_c2_bm_bist
*I *5242:L_LO O *D sg13g2_tielo
*CAP
1 *5217:A_BIST_DIN[3] 0.000338703
2 *5242:L_LO 0.000338703
3 *115:13 0
4 *5217:A_BIST_DIN[3] *5217:A_DIN[3] 0
*RES
1 *5242:L_LO *5217:A_BIST_DIN[3] 23.6642 
2 *5217:A_BIST_DIN[3] *115:13 0.137333 
*END

*D_NET *116 0.000664581
*CONN
*I *5217:A_BIST_DIN[4] I *D RM_IHPSG13_1P_1024x32_c2_bm_bist
*I *5243:L_LO O *D sg13g2_tielo
*CAP
1 *5217:A_BIST_DIN[4] 0.000332291
2 *5243:L_LO 0.000332291
3 *5217:A_BIST_DIN[4] *5217:A_DIN[4] 0
*RES
1 *5243:L_LO *5217:A_BIST_DIN[4] 23.726 
*END

*D_NET *117 0.000656688
*CONN
*I *5217:A_BIST_DIN[5] I *D RM_IHPSG13_1P_1024x32_c2_bm_bist
*I *5244:L_LO O *D sg13g2_tielo
*CAP
1 *5217:A_BIST_DIN[5] 0.000328344
2 *5244:L_LO 0.000328344
3 *5217:A_BIST_DIN[5] *5217:A_DIN[5] 0
*RES
1 *5244:L_LO *5217:A_BIST_DIN[5] 23.4557 
*END

*D_NET *118 0.000657827
*CONN
*I *5217:A_BIST_DIN[6] I *D RM_IHPSG13_1P_1024x32_c2_bm_bist
*I *5245:L_LO O *D sg13g2_tielo
*CAP
1 *5217:A_BIST_DIN[6] 0.000328913
2 *5245:L_LO 0.000328913
3 *5217:A_BIST_DIN[6] *5217:A_DIN[6] 0
*RES
1 *5245:L_LO *5217:A_BIST_DIN[6] 23.7672 
*END

*D_NET *119 0.000629168
*CONN
*I *5217:A_BIST_DIN[7] I *D RM_IHPSG13_1P_1024x32_c2_bm_bist
*I *5246:L_LO O *D sg13g2_tielo
*CAP
1 *5217:A_BIST_DIN[7] 0.000314584
2 *5246:L_LO 0.000314584
3 *5217:A_BIST_DIN[7] *5217:A_DIN[7] 0
4 *5217:A_BIST_DIN[7] *222:9 0
*RES
1 *5246:L_LO *5217:A_BIST_DIN[7] 23.4557 
*END

*D_NET *120 0.000662893
*CONN
*I *5217:A_BIST_DIN[8] I *D RM_IHPSG13_1P_1024x32_c2_bm_bist
*I *5247:L_LO O *D sg13g2_tielo
*CAP
1 *5217:A_BIST_DIN[8] 0.000331446
2 *5247:L_LO 0.000331446
3 *5217:A_BIST_DIN[8] *5217:A_DIN[8] 0
*RES
1 *5247:L_LO *5217:A_BIST_DIN[8] 23.7621 
*END

*D_NET *121 0.000653138
*CONN
*I *5217:A_BIST_DIN[9] I *D RM_IHPSG13_1P_1024x32_c2_bm_bist
*I *5248:L_LO O *D sg13g2_tielo
*CAP
1 *5217:A_BIST_DIN[9] 0.000326569
2 *5248:L_LO 0.000326569
3 *5217:A_BIST_DIN[9] *5217:A_DIN[9] 0
*RES
1 *5248:L_LO *5217:A_BIST_DIN[9] 23.7054 
*END

*D_NET *122 0.00297386
*CONN
*I *5217:A_DIN[10] I *D RM_IHPSG13_1P_1024x32_c2_bm_bist
*I *5141:X O *D sg13g2_buf_1
*CAP
1 *5217:A_DIN[10] 0.000113512
2 *5141:X 0.000502612
3 *122:12 0.000960698
4 *122:8 0.0013498
5 *5217:A_DIN[10] *5217:A_BIST_DIN[10] 0
6 *5217:A_DIN[10] *5217:A_BM[9] 0
7 *5217:A_DIN[10] *188:40 4.72419e-05
8 *122:8 *5216:A 0
9 *122:12 *226:17 0
*RES
1 *5141:X *122:8 45.7268 
2 *122:8 *122:12 31.3506 
3 *122:12 *5217:A_DIN[10] 40.9528 
*END

*D_NET *123 0.000645525
*CONN
*I *5217:A_BIST_DIN[10] I *D RM_IHPSG13_1P_1024x32_c2_bm_bist
*I *5249:L_LO O *D sg13g2_tielo
*CAP
1 *5217:A_BIST_DIN[10] 0.000322763
2 *5249:L_LO 0.000322763
3 *123:14 0
4 *5217:A_DIN[10] *5217:A_BIST_DIN[10] 0
*RES
1 *5249:L_LO *5217:A_BIST_DIN[10] 23.4814 
2 *5217:A_BIST_DIN[10] *123:14 0.137333 
*END

*D_NET *124 0.000694394
*CONN
*I *5217:A_BIST_DIN[11] I *D RM_IHPSG13_1P_1024x32_c2_bm_bist
*I *5250:L_LO O *D sg13g2_tielo
*CAP
1 *5217:A_BIST_DIN[11] 0.000347197
2 *5250:L_LO 0.000347197
3 *5217:A_BIST_DIN[11] *5217:A_DIN[11] 0
*RES
1 *5250:L_LO *5217:A_BIST_DIN[11] 23.7466 
*END

*D_NET *125 0.000646921
*CONN
*I *5217:A_BIST_DIN[12] I *D RM_IHPSG13_1P_1024x32_c2_bm_bist
*I *5251:L_LO O *D sg13g2_tielo
*CAP
1 *5217:A_BIST_DIN[12] 0.00032346
2 *5251:L_LO 0.00032346
3 *5217:A_BIST_DIN[12] *5217:A_DIN[12] 0
*RES
1 *5251:L_LO *5217:A_BIST_DIN[12] 23.5406 
*END

*D_NET *126 0.000688203
*CONN
*I *5217:A_BIST_DIN[13] I *D RM_IHPSG13_1P_1024x32_c2_bm_bist
*I *5252:L_LO O *D sg13g2_tielo
*CAP
1 *5217:A_BIST_DIN[13] 0.000344102
2 *5252:L_LO 0.000344102
3 *5217:A_BIST_DIN[13] *5217:A_DIN[13] 0
*RES
1 *5252:L_LO *5217:A_BIST_DIN[13] 23.7827 
*END

*D_NET *127 0.000627323
*CONN
*I *5217:A_BIST_DIN[14] I *D RM_IHPSG13_1P_1024x32_c2_bm_bist
*I *5253:L_LO O *D sg13g2_tielo
*CAP
1 *5217:A_BIST_DIN[14] 0.000313661
2 *5253:L_LO 0.000313661
3 *5217:A_BIST_DIN[14] *5217:A_DIN[14] 0
4 *5217:A_BIST_DIN[14] *196:11 0
*RES
1 *5253:L_LO *5217:A_BIST_DIN[14] 23.4557 
*END

*D_NET *128 0.000692646
*CONN
*I *5217:A_BIST_DIN[15] I *D RM_IHPSG13_1P_1024x32_c2_bm_bist
*I *5254:L_LO O *D sg13g2_tielo
*CAP
1 *5217:A_BIST_DIN[15] 0.000346323
2 *5254:L_LO 0.000346323
3 *128:13 0
4 *5217:A_BIST_DIN[15] *5217:A_DIN[15] 0
*RES
1 *5254:L_LO *5217:A_BIST_DIN[15] 23.6642 
2 *5217:A_BIST_DIN[15] *128:13 0.137333 
*END

*D_NET *129 0.000637108
*CONN
*I *5217:A_BIST_DIN[16] I *D RM_IHPSG13_1P_1024x32_c2_bm_bist
*I *5255:L_LO O *D sg13g2_tielo
*CAP
1 *5217:A_BIST_DIN[16] 0.000318554
2 *5255:L_LO 0.000318554
3 *5217:A_BIST_DIN[16] *5217:A_DIN[16] 0
4 *5217:A_BIST_DIN[16] *200:9 0
*RES
1 *5255:L_LO *5217:A_BIST_DIN[16] 23.5561 
*END

*D_NET *130 0.000651531
*CONN
*I *5217:A_BIST_DIN[17] I *D RM_IHPSG13_1P_1024x32_c2_bm_bist
*I *5256:L_LO O *D sg13g2_tielo
*CAP
1 *5217:A_BIST_DIN[17] 0.000310795
2 *5256:L_LO 0.000310795
3 *130:11 0
4 *5217:A_BIST_DIN[17] *5217:A_DIN[17] 2.99407e-05
*RES
1 *5256:L_LO *5217:A_BIST_DIN[17] 23.3578 
2 *5217:A_BIST_DIN[17] *130:11 0.137333 
*END

*D_NET *131 0.00063577
*CONN
*I *5217:A_BIST_DIN[18] I *D RM_IHPSG13_1P_1024x32_c2_bm_bist
*I *5257:L_LO O *D sg13g2_tielo
*CAP
1 *5217:A_BIST_DIN[18] 0.000317885
2 *5257:L_LO 0.000317885
3 *5217:A_BIST_DIN[18] *5217:A_DIN[18] 0
*RES
1 *5257:L_LO *5217:A_BIST_DIN[18] 23.4557 
*END

*D_NET *132 0.000686564
*CONN
*I *5217:A_BIST_DIN[19] I *D RM_IHPSG13_1P_1024x32_c2_bm_bist
*I *5258:L_LO O *D sg13g2_tielo
*CAP
1 *5217:A_BIST_DIN[19] 0.000296795
2 *5258:L_LO 0.000296795
3 *132:11 0
4 *5217:A_BIST_DIN[19] *5217:A_DIN[19] 9.29738e-05
*RES
1 *5258:L_LO *5217:A_BIST_DIN[19] 23.417 
2 *5217:A_BIST_DIN[19] *132:11 0.137333 
*END

*D_NET *133 0.003173
*CONN
*I *5217:A_DIN[11] I *D RM_IHPSG13_1P_1024x32_c2_bm_bist
*I *5142:X O *D sg13g2_buf_1
*CAP
1 *5217:A_DIN[11] 0.00019218
2 *5142:X 0.000536595
3 *133:14 0.0010499
4 *133:10 0.00139432
5 *5217:A_DIN[11] *5217:A_BM[10] 0
6 *5217:A_DIN[11] *5217:A_BIST_BM[10] 0
7 *5217:A_DIN[11] *188:50 0
8 *133:10 *193:19 0
9 *133:14 *193:13 0
10 *5217:A_BIST_DIN[11] *5217:A_DIN[11] 0
*RES
1 *5142:X *133:10 46.077 
2 *133:10 *133:14 31.1343 
3 *133:14 *5217:A_DIN[11] 41.5398 
*END

*D_NET *134 0.000649555
*CONN
*I *5217:A_BIST_DIN[20] I *D RM_IHPSG13_1P_1024x32_c2_bm_bist
*I *5259:L_LO O *D sg13g2_tielo
*CAP
1 *5217:A_BIST_DIN[20] 0.000324777
2 *5259:L_LO 0.000324777
3 *5217:A_BIST_DIN[20] *5217:A_DIN[20] 0
*RES
1 *5259:L_LO *5217:A_BIST_DIN[20] 23.7415 
*END

*D_NET *135 0.000647245
*CONN
*I *5217:A_BIST_DIN[21] I *D RM_IHPSG13_1P_1024x32_c2_bm_bist
*I *5260:L_LO O *D sg13g2_tielo
*CAP
1 *5217:A_BIST_DIN[21] 0.000315895
2 *5260:L_LO 0.000315895
3 *5217:A_BIST_DIN[21] *5217:A_DIN[21] 1.54556e-05
*RES
1 *5260:L_LO *5217:A_BIST_DIN[21] 23.5355 
*END

*D_NET *136 0.000659829
*CONN
*I *5217:A_BIST_DIN[22] I *D RM_IHPSG13_1P_1024x32_c2_bm_bist
*I *5261:L_LO O *D sg13g2_tielo
*CAP
1 *5217:A_BIST_DIN[22] 0.000329915
2 *5261:L_LO 0.000329915
3 *5217:A_BIST_DIN[22] *5217:A_DIN[22] 0
*RES
1 *5261:L_LO *5217:A_BIST_DIN[22] 23.7827 
*END

*D_NET *137 0.000604128
*CONN
*I *5217:A_BIST_DIN[23] I *D RM_IHPSG13_1P_1024x32_c2_bm_bist
*I *5262:L_LO O *D sg13g2_tielo
*CAP
1 *5217:A_BIST_DIN[23] 0.000302064
2 *5262:L_LO 0.000302064
3 *5217:A_BIST_DIN[23] *5217:A_DIN[23] 0
4 *5217:A_BIST_DIN[23] *5217:A_BM[24] 0
5 *5217:A_BIST_DIN[23] *209:9 0
*RES
1 *5262:L_LO *5217:A_BIST_DIN[23] 23.4557 
*END

*D_NET *138 0.000688416
*CONN
*I *5217:A_BIST_DIN[24] I *D RM_IHPSG13_1P_1024x32_c2_bm_bist
*I *5263:L_LO O *D sg13g2_tielo
*CAP
1 *5217:A_BIST_DIN[24] 0.000313487
2 *5263:L_LO 0.000313487
3 *138:11 0
4 *5217:A_BIST_DIN[24] *5217:A_DIN[24] 6.14418e-05
*RES
1 *5263:L_LO *5217:A_BIST_DIN[24] 23.3578 
2 *5217:A_BIST_DIN[24] *138:11 0.137333 
*END

*D_NET *139 0.000655493
*CONN
*I *5217:A_BIST_DIN[25] I *D RM_IHPSG13_1P_1024x32_c2_bm_bist
*I *5264:L_LO O *D sg13g2_tielo
*CAP
1 *5217:A_BIST_DIN[25] 0.000327747
2 *5264:L_LO 0.000327747
3 *5217:A_BIST_DIN[25] *5217:A_DIN[25] 0
*RES
1 *5264:L_LO *5217:A_BIST_DIN[25] 23.7209 
*END

*D_NET *140 0.000728191
*CONN
*I *5217:A_BIST_DIN[26] I *D RM_IHPSG13_1P_1024x32_c2_bm_bist
*I *5265:L_LO O *D sg13g2_tielo
*CAP
1 *5217:A_BIST_DIN[26] 0.000293501
2 *5265:L_LO 0.000293501
3 *140:11 0
4 *5217:A_BIST_DIN[26] *5217:A_DIN[26] 0.000141189
*RES
1 *5265:L_LO *5217:A_BIST_DIN[26] 23.4376 
2 *5217:A_BIST_DIN[26] *140:11 0.137333 
*END

*D_NET *141 0.000683611
*CONN
*I *5217:A_BIST_DIN[27] I *D RM_IHPSG13_1P_1024x32_c2_bm_bist
*I *5266:L_LO O *D sg13g2_tielo
*CAP
1 *5217:A_BIST_DIN[27] 0.000341806
2 *5266:L_LO 0.000341806
3 *5217:A_BIST_DIN[27] *5217:A_DIN[27] 0
*RES
1 *5266:L_LO *5217:A_BIST_DIN[27] 24.0324 
*END

*D_NET *142 0.000636251
*CONN
*I *5217:A_BIST_DIN[28] I *D RM_IHPSG13_1P_1024x32_c2_bm_bist
*I *5267:L_LO O *D sg13g2_tielo
*CAP
1 *5217:A_BIST_DIN[28] 0.000318125
2 *5267:L_LO 0.000318125
3 *5217:A_BIST_DIN[28] *5217:A_DIN[28] 0
4 *5217:A_BIST_DIN[28] *215:11 0
*RES
1 *5267:L_LO *5217:A_BIST_DIN[28] 23.5561 
*END

*D_NET *143 0.000651531
*CONN
*I *5217:A_BIST_DIN[29] I *D RM_IHPSG13_1P_1024x32_c2_bm_bist
*I *5268:L_LO O *D sg13g2_tielo
*CAP
1 *5217:A_BIST_DIN[29] 0.000310795
2 *5268:L_LO 0.000310795
3 *143:11 0
4 *5217:A_BIST_DIN[29] *5217:A_DIN[29] 2.99407e-05
*RES
1 *5268:L_LO *5217:A_BIST_DIN[29] 23.3578 
2 *5217:A_BIST_DIN[29] *143:11 0.137333 
*END

*D_NET *144 0.00315387
*CONN
*I *5217:A_DIN[12] I *D RM_IHPSG13_1P_1024x32_c2_bm_bist
*I *5143:X O *D sg13g2_buf_1
*CAP
1 *5217:A_DIN[12] 8.44044e-05
2 *5143:X 0.000802901
3 *144:16 0.000718591
4 *144:8 0.00143709
5 *5217:A_DIN[12] *5217:A_BM[11] 0
6 *144:8 *194:19 0
7 *144:16 *188:60 0.000110887
8 *144:16 *194:13 0
9 *5217:A_BIST_DIN[12] *5217:A_DIN[12] 0
*RES
1 *5143:X *144:8 49.1876 
2 *144:8 *144:16 48.4151 
3 *144:16 *5217:A_DIN[12] 20.7262 
*END

*D_NET *145 0.00063577
*CONN
*I *5217:A_BIST_DIN[30] I *D RM_IHPSG13_1P_1024x32_c2_bm_bist
*I *5269:L_LO O *D sg13g2_tielo
*CAP
1 *5217:A_BIST_DIN[30] 0.000317885
2 *5269:L_LO 0.000317885
3 *5217:A_BIST_DIN[30] *5217:A_DIN[30] 0
*RES
1 *5269:L_LO *5217:A_BIST_DIN[30] 23.4557 
*END

*D_NET *146 0.000990659
*CONN
*I *5217:A_BIST_DIN[31] I *D RM_IHPSG13_1P_1024x32_c2_bm_bist
*I *5270:L_LO O *D sg13g2_tielo
*CAP
1 *5217:A_BIST_DIN[31] 5.83787e-05
2 *5270:L_LO 0.000436951
3 *146:10 0.000495329
4 *5217:A_BIST_DIN[31] *5217:A_DIN[31] 0
*RES
1 *5270:L_LO *146:10 45.1474 
2 *146:10 *5217:A_BIST_DIN[31] 20.5098 
*END

*D_NET *147 0.000908744
*CONN
*I *5217:A_BIST_EN I *D RM_IHPSG13_1P_1024x32_c2_bm_bist
*I *5271:L_LO O *D sg13g2_tielo
*CAP
1 *5217:A_BIST_EN 0.000361679
2 *5271:L_LO 0.000361679
3 *5217:A_BIST_EN *5217:A_ADDR[1] 0
4 *5217:A_BIST_EN *153:10 0
5 *5217:A_ADDR[0] *5217:A_BIST_EN 8.67404e-05
6 *5217:A_REN *5217:A_BIST_EN 0
7 *5217:A_WEN *5217:A_BIST_EN 9.86457e-05
*RES
1 *5271:L_LO *5217:A_BIST_EN 23.8058 
*END

*D_NET *148 0.00119444
*CONN
*I *5217:A_BIST_ADDR[0] I *D RM_IHPSG13_1P_1024x32_c2_bm_bist
*I *5272:L_LO O *D sg13g2_tielo
*CAP
1 *5217:A_BIST_ADDR[0] 0.000298085
2 *5272:L_LO 7.70445e-05
3 *148:8 0.00037513
4 *5217:A_BIST_ADDR[0] *5217:A_BIST_ADDR[1] 0.000444178
5 *5217:A_BIST_ADDR[0] *5217:A_ADDR[3] 0
6 *5217:A_BIST_ADDR[3] *5217:A_BIST_ADDR[0] 0
*RES
1 *5272:L_LO *148:8 40.8446 
2 *148:8 *5217:A_BIST_ADDR[0] 22.4292 
*END

*D_NET *149 0.00126055
*CONN
*I *5217:A_BIST_ADDR[1] I *D RM_IHPSG13_1P_1024x32_c2_bm_bist
*I *5273:L_LO O *D sg13g2_tielo
*CAP
1 *5217:A_BIST_ADDR[1] 0.000408186
2 *5273:L_LO 0.000408186
3 *5217:A_BIST_ADDR[1] *5217:A_BIST_REN 0
4 *5217:A_BIST_ADDR[1] *153:10 0
5 *5217:A_BIST_ADDR[0] *5217:A_BIST_ADDR[1] 0.000444178
*RES
1 *5273:L_LO *5217:A_BIST_ADDR[1] 24.4187 
*END

*D_NET *150 0.00120597
*CONN
*I *5217:A_BIST_ADDR[2] I *D RM_IHPSG13_1P_1024x32_c2_bm_bist
*I *5274:L_LO O *D sg13g2_tielo
*CAP
1 *5217:A_BIST_ADDR[2] 0.000357021
2 *5274:L_LO 0.000357021
3 *5217:A_BIST_ADDR[2] *5217:A_ADDR[2] 7.19362e-05
4 *5217:A_BIST_ADDR[2] *5217:A_BIST_ADDR[5] 0.000419994
5 *5217:A_BIST_ADDR[3] *5217:A_BIST_ADDR[2] 0
*RES
1 *5274:L_LO *5217:A_BIST_ADDR[2] 23.7904 
*END

*D_NET *151 0.000732366
*CONN
*I *5217:A_BIST_MEN I *D RM_IHPSG13_1P_1024x32_c2_bm_bist
*I *5275:L_HI O *D sg13g2_tiehi
*CAP
1 *5217:A_BIST_MEN 0.000198252
2 *5275:L_HI 0.000198252
3 *5217:A_CLK *5217:A_BIST_MEN 0
4 *5217:A_MEN *5217:A_BIST_MEN 0
5 *5217:A_BIST_CLK *5217:A_BIST_MEN 0.000335862
*RES
1 *5275:L_HI *5217:A_BIST_MEN 22.2402 
*END

*D_NET *152 0.00080805
*CONN
*I *5217:A_BIST_REN I *D RM_IHPSG13_1P_1024x32_c2_bm_bist
*I *5276:L_HI O *D sg13g2_tiehi
*CAP
1 *5217:A_BIST_REN 0.00023101
2 *5276:L_HI 8.45157e-05
3 *152:8 0.000315526
4 *5217:A_BIST_REN *5217:A_BIST_WEN 3.21544e-05
5 *5217:A_BIST_REN *153:10 0.000144843
6 *5217:A_BIST_ADDR[1] *5217:A_BIST_REN 0
7 *5217:A_REN *5217:A_BIST_REN 0
*RES
1 *5276:L_HI *152:8 40.8446 
2 *152:8 *5217:A_BIST_REN 22.2402 
*END

*D_NET *153 0.0011212
*CONN
*I *5217:A_BIST_WEN I *D RM_IHPSG13_1P_1024x32_c2_bm_bist
*I *5277:L_HI O *D sg13g2_tiehi
*CAP
1 *5217:A_BIST_WEN 7.88166e-05
2 *5277:L_HI 0.000393285
3 *153:10 0.000472101
4 *153:10 *5217:A_ADDR[1] 0
5 *5217:A_BIST_ADDR[1] *153:10 0
6 *5217:A_REN *5217:A_BIST_WEN 0
7 *5217:A_REN *153:10 0
8 *5217:A_BIST_EN *153:10 0
9 *5217:A_BIST_REN *5217:A_BIST_WEN 3.21544e-05
10 *5217:A_BIST_REN *153:10 0.000144843
*RES
1 *5277:L_HI *153:10 44.4239 
2 *153:10 *5217:A_BIST_WEN 20.6541 
*END

*D_NET *154 0.000507634
*CONN
*I *5217:A_DLY I *D RM_IHPSG13_1P_1024x32_c2_bm_bist
*I *5278:L_HI O *D sg13g2_tiehi
*CAP
1 *5217:A_DLY 0.000253817
2 *5278:L_HI 0.000253817
3 *5217:A_DLY *5217:A_BIST_ADDR[8] 0
*RES
1 *5278:L_HI *5217:A_DLY 22.8377 
*END

*D_NET *155 0.00304081
*CONN
*I *5217:A_DIN[13] I *D RM_IHPSG13_1P_1024x32_c2_bm_bist
*I *5144:X O *D sg13g2_buf_1
*CAP
1 *5217:A_DIN[13] 9.37898e-05
2 *5144:X 0.000802901
3 *155:16 0.000699253
4 *155:8 0.00140836
5 *5217:A_DIN[13] *5217:A_BM[12] 0
6 *155:8 *195:19 0
7 *155:16 *188:70 3.65051e-05
8 *155:16 *195:13 0
9 *5217:A_BIST_DIN[13] *5217:A_DIN[13] 0
*RES
1 *5144:X *155:8 49.1876 
2 *155:8 *155:16 48.0649 
3 *155:16 *5217:A_DIN[13] 20.7262 
*END

*D_NET *156 0.00308785
*CONN
*I *5217:A_DIN[14] I *D RM_IHPSG13_1P_1024x32_c2_bm_bist
*I *5145:X O *D sg13g2_buf_1
*CAP
1 *5217:A_DIN[14] 8.20362e-05
2 *5145:X 0.00080681
3 *156:16 0.000703768
4 *156:8 0.00142854
5 *5217:A_DIN[14] *5217:A_BM[13] 0
6 *5217:A_DIN[14] *196:11 0
7 *156:8 *5189:A 0
8 *156:16 *188:80 6.66935e-05
9 *156:16 *196:11 0
10 *5217:A_BIST_DIN[14] *5217:A_DIN[14] 0
*RES
1 *5145:X *156:8 49.1876 
2 *156:8 *156:16 48.2091 
3 *156:16 *5217:A_DIN[14] 20.7262 
*END

*D_NET *157 0.00314667
*CONN
*I *5217:A_DIN[15] I *D RM_IHPSG13_1P_1024x32_c2_bm_bist
*I *5146:X O *D sg13g2_buf_1
*CAP
1 *5217:A_DIN[15] 9.13159e-05
2 *5146:X 0.000802901
3 *157:16 0.000721617
4 *157:8 0.0014332
5 *5217:A_DIN[15] *5217:A_BM[14] 0
6 *157:8 *197:19 0
7 *157:16 *5217:A_BM[15] 9.76288e-05
8 *157:16 *197:13 0
9 *5217:A_BIST_DIN[15] *5217:A_DIN[15] 0
*RES
1 *5146:X *157:8 49.1876 
2 *157:8 *157:16 48.3533 
3 *157:16 *5217:A_DIN[15] 20.7262 
*END

*D_NET *158 0.00293176
*CONN
*I *5217:A_DIN[16] I *D RM_IHPSG13_1P_1024x32_c2_bm_bist
*I *5147:X O *D sg13g2_buf_1
*CAP
1 *5217:A_DIN[16] 0.000100315
2 *5147:X 0.000502612
3 *158:12 0.000947163
4 *158:8 0.00134946
5 *5217:A_DIN[16] *5217:A_BM[17] 0
6 *5217:A_DIN[16] *189:34 3.22104e-05
7 *158:8 *5193:A 0
8 *158:8 *189:10 0
9 *158:12 *189:14 0
10 *158:12 *200:15 0
11 *5217:A_BIST_DIN[16] *5217:A_DIN[16] 0
*RES
1 *5147:X *158:8 45.7268 
2 *158:8 *158:12 31.3506 
3 *158:12 *5217:A_DIN[16] 40.8806 
*END

*D_NET *159 0.00575318
*CONN
*I *5217:A_ADDR[1] I *D RM_IHPSG13_1P_1024x32_c2_bm_bist
*I *5148:X O *D sg13g2_buf_1
*CAP
1 *5217:A_ADDR[1] 0.000486607
2 *5148:X 0.0012159
3 *159:12 0.000630261
4 *159:6 0.00135955
5 *159:6 *5134:A 0
6 *159:6 *186:12 0
7 *5217:A_ADDR[0] *5217:A_ADDR[1] 7.20446e-05
8 *5217:A_MEN *5217:A_ADDR[1] 0.000534114
9 *5217:A_BIST_EN *5217:A_ADDR[1] 0
10 *13:17 *159:12 0.000280945
11 *84:16 *5217:A_ADDR[1] 7.44263e-05
12 *84:16 *159:12 0.00024826
13 *86:12 *159:6 0.000851069
14 *88:6 *159:6 0
15 *153:10 *5217:A_ADDR[1] 0
*RES
1 *5148:X *159:6 31.5669 
2 *159:6 *159:12 41.8334 
3 *159:12 *5217:A_ADDR[1] 45.083 
*END

*D_NET *160 0.00307662
*CONN
*I *5217:A_DIN[17] I *D RM_IHPSG13_1P_1024x32_c2_bm_bist
*I *5149:X O *D sg13g2_buf_1
*CAP
1 *5217:A_DIN[17] 0.000104226
2 *5149:X 0.000554067
3 *160:14 0.000953168
4 *160:10 0.00140301
5 *5217:A_DIN[17] *5217:A_BM[18] 0
6 *5217:A_DIN[17] *189:44 3.22104e-05
7 *160:10 *5194:A 0
8 *160:14 *201:17 0
9 *5217:A_BIST_DIN[17] *5217:A_DIN[17] 2.99407e-05
*RES
1 *5149:X *160:10 46.077 
2 *160:10 *160:14 31.3506 
3 *160:14 *5217:A_DIN[17] 40.8806 
*END

*D_NET *161 0.00306156
*CONN
*I *5217:A_DIN[18] I *D RM_IHPSG13_1P_1024x32_c2_bm_bist
*I *5150:X O *D sg13g2_buf_1
*CAP
1 *5217:A_DIN[18] 0.000105944
2 *5150:X 0.000554067
3 *161:14 0.000956236
4 *161:10 0.00140436
5 *5217:A_DIN[18] *5217:A_BM[19] 0
6 *5217:A_DIN[18] *189:54 4.09551e-05
7 *161:14 *202:17 0
8 *5217:A_BIST_DIN[18] *5217:A_DIN[18] 0
*RES
1 *5150:X *161:10 46.077 
2 *161:10 *161:14 31.3506 
3 *161:14 *5217:A_DIN[18] 40.9218 
*END

*D_NET *162 0.00324306
*CONN
*I *5217:A_DIN[19] I *D RM_IHPSG13_1P_1024x32_c2_bm_bist
*I *5151:X O *D sg13g2_buf_1
*CAP
1 *5217:A_DIN[19] 0.000111919
2 *5151:X 0.000516437
3 *162:12 0.000995773
4 *162:8 0.00140029
5 *5217:A_DIN[19] *5217:A_BM[20] 0
6 *5217:A_DIN[19] *189:64 0.000125668
7 *162:12 *205:17 0
8 *5217:A_BIST_DIN[19] *5217:A_DIN[19] 9.29738e-05
*RES
1 *5151:X *162:8 45.7268 
2 *162:8 *162:12 31.3506 
3 *162:12 *5217:A_DIN[19] 41.3133 
*END

*D_NET *163 0.0095746
*CONN
*I *5217:A_DIN[1] I *D RM_IHPSG13_1P_1024x32_c2_bm_bist
*I *5152:X O *D sg13g2_buf_1
*CAP
1 *5217:A_DIN[1] 8.24597e-05
2 *5152:X 0
3 *163:20 0.00199569
4 *163:12 0.00199603
5 *163:6 8.27973e-05
6 *5217:A_DIN[1] *5217:A_BM[0] 0
7 *5217:A_DIN[1] *187:32 6.01277e-05
8 *163:20 *191:15 0
9 *163:20 *204:15 0.000146568
10 *163:20 *204:21 0.00521093
11 *5217:A_BIST_DIN[1] *5217:A_DIN[1] 0
*RES
1 *5152:X *163:6 40 
2 *163:6 *163:12 40.7519 
3 *163:12 *163:20 49.9421 
4 *163:20 *5217:A_DIN[1] 40.7879 
*END

*D_NET *164 0.002947
*CONN
*I *5217:A_DIN[20] I *D RM_IHPSG13_1P_1024x32_c2_bm_bist
*I *5153:X O *D sg13g2_buf_1
*CAP
1 *5217:A_DIN[20] 0.000105665
2 *5153:X 0.000498703
3 *164:12 0.000951097
4 *164:8 0.00134413
5 *5217:A_DIN[20] *5217:A_BM[21] 0
6 *5217:A_DIN[20] *189:74 4.73972e-05
7 *164:8 *5198:A 0
8 *164:12 *206:17 0
9 *5217:A_BIST_DIN[20] *5217:A_DIN[20] 0
*RES
1 *5153:X *164:8 45.7268 
2 *164:8 *164:12 31.3506 
3 *164:12 *5217:A_DIN[20] 40.9528 
*END

*D_NET *165 0.00298367
*CONN
*I *5217:A_DIN[21] I *D RM_IHPSG13_1P_1024x32_c2_bm_bist
*I *5154:X O *D sg13g2_buf_1
*CAP
1 *5217:A_DIN[21] 0.000100824
2 *5154:X 0.000554067
3 *165:14 0.000930042
4 *165:10 0.00138329
5 *5217:A_DIN[21] *5217:A_BM[22] 0
6 *5217:A_DIN[21] *207:9 0
7 *165:10 *5199:A 0
8 *165:14 *207:15 0
9 *5217:A_BIST_DIN[21] *5217:A_DIN[21] 1.54556e-05
*RES
1 *5154:X *165:10 46.077 
2 *165:10 *165:14 31.1343 
3 *165:14 *5217:A_DIN[21] 40.9425 
*END

*D_NET *166 0.00287691
*CONN
*I *5217:A_DIN[22] I *D RM_IHPSG13_1P_1024x32_c2_bm_bist
*I *5155:X O *D sg13g2_buf_1
*CAP
1 *5217:A_DIN[22] 0.000122474
2 *5155:X 0
3 *166:10 0.00138225
4 *166:6 0.00125977
5 *5217:A_DIN[22] *5217:A_BM[23] 0.00011241
6 *166:10 *208:17 0
7 *5217:A_BIST_DIN[22] *5217:A_DIN[22] 0
*RES
1 *5155:X *166:6 40 
2 *166:6 *166:10 36.9744 
3 *166:10 *5217:A_DIN[22] 41.2514 
*END

*D_NET *167 0.00596426
*CONN
*I *5217:A_DIN[23] I *D RM_IHPSG13_1P_1024x32_c2_bm_bist
*I *5156:X O *D sg13g2_buf_1
*CAP
1 *5217:A_DIN[23] 0.000785169
2 *5156:X 0
3 *167:10 0.00216073
4 *167:6 0.00137556
5 *5217:A_DIN[23] *5217:A_DIN[24] 0.00028159
6 *5217:A_DIN[23] *5217:A_BM[24] 0.000139209
7 *5217:A_DIN[23] *190:18 0
8 *5217:A_DIN[23] *210:11 5.90523e-05
9 *167:10 *168:10 0
10 *167:10 *190:16 0.00116295
11 *167:10 *209:19 0
12 *167:10 *210:15 0
13 *5217:A_BIST_DIN[23] *5217:A_DIN[23] 0
*RES
1 *5156:X *167:6 40 
2 *167:6 *167:10 37.1907 
3 *167:10 *5217:A_DIN[23] 48.5953 
*END

*D_NET *168 0.00360247
*CONN
*I *5217:A_DIN[24] I *D RM_IHPSG13_1P_1024x32_c2_bm_bist
*I *5157:X O *D sg13g2_buf_1
*CAP
1 *5217:A_DIN[24] 0.000130018
2 *5157:X 0
3 *168:10 0.00148872
4 *168:6 0.0013587
5 *5217:A_DIN[24] *5217:A_BM[24] 0.000282005
6 *5217:A_DIN[24] *5217:A_BM[25] 0
7 *5217:A_DIN[23] *5217:A_DIN[24] 0.00028159
8 *5217:A_BIST_DIN[24] *5217:A_DIN[24] 6.14418e-05
9 *167:10 *168:10 0
*RES
1 *5157:X *168:6 40 
2 *168:6 *168:10 36.9744 
3 *168:10 *5217:A_DIN[24] 42.0342 
*END

*D_NET *169 0.00297528
*CONN
*I *5217:A_DIN[25] I *D RM_IHPSG13_1P_1024x32_c2_bm_bist
*I *5158:X O *D sg13g2_buf_1
*CAP
1 *5217:A_DIN[25] 9.90882e-05
2 *5158:X 3.69656e-05
3 *169:12 0.00142758
4 *169:8 0.00136546
5 *5217:A_DIN[25] *5217:A_BM[26] 0
6 *5217:A_DIN[25] *190:46 4.61978e-05
7 *169:12 *210:15 0
8 *5217:A_BIST_DIN[25] *5217:A_DIN[25] 0
*RES
1 *5158:X *169:8 40.3502 
2 *169:8 *169:12 36.9744 
3 *169:12 *5217:A_DIN[25] 40.9425 
*END

*D_NET *170 0.00333951
*CONN
*I *5217:A_ADDR[2] I *D RM_IHPSG13_1P_1024x32_c2_bm_bist
*I *5159:X O *D sg13g2_buf_1
*CAP
1 *5217:A_ADDR[2] 4.11208e-05
2 *5159:X 0.000847455
3 *170:16 0.000748081
4 *170:8 0.00155442
5 *170:8 *181:8 0
6 *170:8 *203:8 0
7 *170:16 *181:16 0
8 *170:16 *203:16 0
9 *5217:A_BIST_ADDR[2] *5217:A_ADDR[2] 7.19362e-05
10 *5217:A_BIST_ADDR[3] *5217:A_ADDR[2] 7.65053e-05
*RES
1 *5159:X *170:8 49.1876 
2 *170:8 *170:16 48.3327 
3 *170:16 *5217:A_ADDR[2] 20.5098 
*END

*D_NET *171 0.00278096
*CONN
*I *5217:A_DIN[26] I *D RM_IHPSG13_1P_1024x32_c2_bm_bist
*I *5160:X O *D sg13g2_buf_1
*CAP
1 *5217:A_DIN[26] 8.08523e-05
2 *5160:X 0
3 *171:10 0.00131989
4 *171:6 0.00123904
5 *5217:A_DIN[26] *5217:A_BM[27] 0
6 *5217:A_DIN[26] *212:11 0
7 *5217:A_BIST_DIN[26] *5217:A_DIN[26] 0.000141189
8 *5217:A_BIST_BM[27] *5217:A_DIN[26] 0
*RES
1 *5160:X *171:6 40 
2 *171:6 *171:10 36.7581 
3 *171:10 *5217:A_DIN[26] 40.9425 
*END

*D_NET *172 0.0027755
*CONN
*I *5217:A_DIN[27] I *D RM_IHPSG13_1P_1024x32_c2_bm_bist
*I *5161:X O *D sg13g2_buf_1
*CAP
1 *5217:A_DIN[27] 0.000102926
2 *5161:X 0
3 *172:10 0.00136405
4 *172:6 0.00126112
5 *5217:A_DIN[27] *5217:A_BM[28] 0
6 *5217:A_DIN[27] *190:60 4.73972e-05
7 *172:10 *213:15 0
8 *5217:A_BIST_DIN[27] *5217:A_DIN[27] 0
*RES
1 *5161:X *172:6 40 
2 *172:6 *172:10 36.9744 
3 *172:10 *5217:A_DIN[27] 40.9528 
*END

*D_NET *173 0.00284589
*CONN
*I *5217:A_DIN[28] I *D RM_IHPSG13_1P_1024x32_c2_bm_bist
*I *5162:X O *D sg13g2_buf_1
*CAP
1 *5217:A_DIN[28] 0.000120907
2 *5162:X 0
3 *173:10 0.00138068
4 *173:6 0.00125977
5 *5217:A_DIN[28] *5217:A_BM[29] 0
6 *5217:A_DIN[28] *190:70 8.45261e-05
7 *173:10 *215:15 0
8 *5217:A_BIST_DIN[28] *5217:A_DIN[28] 0
*RES
1 *5162:X *173:6 40 
2 *173:6 *173:10 36.9744 
3 *173:10 *5217:A_DIN[28] 41.1278 
*END

*D_NET *174 0.0029219
*CONN
*I *5217:A_DIN[29] I *D RM_IHPSG13_1P_1024x32_c2_bm_bist
*I *5163:X O *D sg13g2_buf_1
*CAP
1 *5217:A_DIN[29] 0.000127792
2 *5163:X 0
3 *174:10 0.00138757
4 *174:6 0.00125977
5 *5217:A_DIN[29] *5217:A_BM[30] 0
6 *5217:A_DIN[29] *190:80 0.00011683
7 *174:10 *217:17 0
8 *5217:A_BIST_DIN[29] *5217:A_DIN[29] 2.99407e-05
*RES
1 *5163:X *174:6 40 
2 *174:6 *174:10 36.9744 
3 *174:10 *5217:A_DIN[29] 41.272 
*END

*D_NET *175 0.00316584
*CONN
*I *5217:A_DIN[2] I *D RM_IHPSG13_1P_1024x32_c2_bm_bist
*I *5164:X O *D sg13g2_buf_1
*CAP
1 *5217:A_DIN[2] 8.21392e-05
2 *5164:X 0.000802901
3 *175:16 0.000720155
4 *175:8 0.00144092
5 *5217:A_DIN[2] *5217:A_BM[1] 0
6 *5217:A_DIN[2] *204:9 0
7 *175:16 *187:42 0.000119725
8 *5217:A_BIST_DIN[2] *5217:A_DIN[2] 0
*RES
1 *5164:X *175:8 49.1876 
2 *175:8 *175:16 48.4563 
3 *175:16 *5217:A_DIN[2] 20.7262 
*END

*D_NET *176 0.00277509
*CONN
*I *5217:A_DIN[30] I *D RM_IHPSG13_1P_1024x32_c2_bm_bist
*I *5165:X O *D sg13g2_buf_1
*CAP
1 *5217:A_DIN[30] 0.000105944
2 *5165:X 0
3 *176:10 0.00136707
4 *176:6 0.00126112
5 *5217:A_DIN[30] *5217:A_BM[31] 4.09551e-05
6 *176:10 *218:15 0
7 *5217:A_BIST_DIN[30] *5217:A_DIN[30] 0
*RES
1 *5165:X *176:6 40 
2 *176:6 *176:10 36.9744 
3 *176:10 *5217:A_DIN[30] 40.9218 
*END

*D_NET *177 0.00318026
*CONN
*I *5217:A_DIN[31] I *D RM_IHPSG13_1P_1024x32_c2_bm_bist
*I *5166:X O *D sg13g2_buf_1
*CAP
1 *5217:A_DIN[31] 0.000558809
2 *5166:X 0.00103132
3 *177:6 0.00159013
4 *5217:A_BIST_DIN[31] *5217:A_DIN[31] 0
*RES
1 *5166:X *177:6 31.7832 
2 *177:6 *5217:A_DIN[31] 46.3705 
*END

*D_NET *178 0.00305306
*CONN
*I *5217:A_DIN[3] I *D RM_IHPSG13_1P_1024x32_c2_bm_bist
*I *5167:X O *D sg13g2_buf_1
*CAP
1 *5217:A_DIN[3] 9.13159e-05
2 *5167:X 0.000802901
3 *178:16 0.000701081
4 *178:8 0.00141267
5 *5217:A_DIN[3] *5217:A_BM[2] 0
6 *178:8 *5207:A 0
7 *178:16 *187:52 4.50945e-05
8 *178:16 *216:15 0
9 *5217:A_BIST_DIN[3] *5217:A_DIN[3] 0
*RES
1 *5167:X *178:8 49.1876 
2 *178:8 *178:16 48.1061 
3 *178:16 *5217:A_DIN[3] 20.7262 
*END

*D_NET *179 0.00311081
*CONN
*I *5217:A_DIN[4] I *D RM_IHPSG13_1P_1024x32_c2_bm_bist
*I *5168:X O *D sg13g2_buf_1
*CAP
1 *5217:A_DIN[4] 0.000161645
2 *5168:X 0.000517394
3 *179:12 0.00103801
4 *179:8 0.00139376
5 *5217:A_DIN[4] *5217:A_BM[3] 0
6 *5217:A_DIN[4] *5217:A_BIST_BM[3] 0
7 *5217:A_DIN[4] *187:62 0
8 *179:12 *219:13 0
9 *5217:A_BIST_DIN[4] *5217:A_DIN[4] 0
*RES
1 *5168:X *179:8 45.7268 
2 *179:8 *179:12 31.1343 
3 *179:12 *5217:A_DIN[4] 41.2926 
*END

*D_NET *180 0.00305276
*CONN
*I *5217:A_DIN[5] I *D RM_IHPSG13_1P_1024x32_c2_bm_bist
*I *5169:X O *D sg13g2_buf_1
*CAP
1 *5217:A_DIN[5] 0.000133001
2 *5169:X 0.000498703
3 *180:12 0.000977757
4 *180:8 0.00134346
5 *5217:A_DIN[5] *5217:A_BM[4] 0
6 *5217:A_DIN[5] *187:72 9.98385e-05
7 *180:8 *220:19 0
8 *180:12 *220:13 0
9 *5217:A_BIST_DIN[5] *5217:A_DIN[5] 0
*RES
1 *5169:X *180:8 45.7268 
2 *180:8 *180:12 31.3506 
3 *180:12 *5217:A_DIN[5] 41.2 
*END

*D_NET *181 0.00325243
*CONN
*I *5217:A_ADDR[3] I *D RM_IHPSG13_1P_1024x32_c2_bm_bist
*I *5170:X O *D sg13g2_buf_1
*CAP
1 *5217:A_ADDR[3] 5.49701e-05
2 *5170:X 0.00084482
3 *181:16 0.00076535
4 *181:8 0.0015552
5 *5217:A_BIST_ADDR[0] *5217:A_ADDR[3] 0
6 *5217:A_BIST_ADDR[3] *5217:A_ADDR[3] 3.20946e-05
7 *85:16 *181:16 0
8 *86:18 *181:16 0
9 *88:6 *181:8 0
10 *170:8 *181:8 0
11 *170:16 *181:16 0
*RES
1 *5170:X *181:8 49.1876 
2 *181:8 *181:16 48.7859 
3 *181:16 *5217:A_ADDR[3] 20.5098 
*END

*D_NET *182 0.00293288
*CONN
*I *5217:A_DIN[6] I *D RM_IHPSG13_1P_1024x32_c2_bm_bist
*I *5171:X O *D sg13g2_buf_1
*CAP
1 *5217:A_DIN[6] 0.000100537
2 *5171:X 0.000502612
3 *182:12 0.000947724
4 *182:8 0.0013498
5 *5217:A_DIN[6] *5217:A_BM[5] 0
6 *5217:A_DIN[6] *187:82 3.22104e-05
7 *182:8 *5212:A 0
8 *182:12 *221:17 0
9 *5217:A_BIST_DIN[6] *5217:A_DIN[6] 0
*RES
1 *5171:X *182:8 45.7268 
2 *182:8 *182:12 31.3506 
3 *182:12 *5217:A_DIN[6] 40.8806 
*END

*D_NET *183 0.00303351
*CONN
*I *5217:A_DIN[7] I *D RM_IHPSG13_1P_1024x32_c2_bm_bist
*I *5172:X O *D sg13g2_buf_1
*CAP
1 *5217:A_DIN[7] 9.80322e-05
2 *5172:X 0.000554067
3 *183:14 0.000946504
4 *183:10 0.00140254
5 *5217:A_DIN[7] *5217:A_BM[7] 3.2363e-05
6 *5217:A_DIN[7] *5217:A_BM[6] 0
7 *5217:A_DIN[7] *222:9 0
8 *183:10 *5213:A 0
9 *183:14 *222:15 0
10 *5217:A_BIST_DIN[7] *5217:A_DIN[7] 0
*RES
1 *5172:X *183:10 46.077 
2 *183:10 *183:14 31.3506 
3 *183:14 *5217:A_DIN[7] 40.8806 
*END

*D_NET *184 0.00304741
*CONN
*I *5217:A_DIN[8] I *D RM_IHPSG13_1P_1024x32_c2_bm_bist
*I *5173:X O *D sg13g2_buf_1
*CAP
1 *5217:A_DIN[8] 0.000120019
2 *5173:X 0.000554067
3 *184:14 0.000969636
4 *184:10 0.00140368
5 *5217:A_DIN[8] *5217:A_BM[7] 0
6 *184:10 *5214:A 0
7 *184:14 *223:17 0
8 *5217:A_BIST_DIN[8] *5217:A_DIN[8] 0
*RES
1 *5173:X *184:10 46.077 
2 *184:10 *184:14 31.3506 
3 *184:14 *5217:A_DIN[8] 40.9218 
*END

*D_NET *185 0.00299957
*CONN
*I *5217:A_DIN[9] I *D RM_IHPSG13_1P_1024x32_c2_bm_bist
*I *5174:X O *D sg13g2_buf_1
*CAP
1 *5217:A_DIN[9] 0.000102544
2 *5174:X 0.000568568
3 *185:14 0.000931218
4 *185:10 0.00139724
5 *5217:A_DIN[9] *5217:A_BM[8] 0
6 *5217:A_DIN[9] *224:9 0
7 *185:10 *188:10 0
8 *185:14 *188:14 0
9 *5217:A_BIST_DIN[9] *5217:A_DIN[9] 0
*RES
1 *5174:X *185:10 46.3242 
2 *185:10 *185:14 31.1343 
3 *185:14 *5217:A_DIN[9] 40.9425 
*END

*D_NET *186 0.00283482
*CONN
*I *5136:A_N I *D sg13g2_nand2b_1
*I *5134:A I *D sg13g2_inv_1
*I *5175:X O *D sg13g2_buf_1
*CAP
1 *5136:A_N 3.72532e-05
2 *5134:A 0.00043369
3 *5175:X 0.000574574
4 *186:12 0.00104552
5 *5135:A *5134:A 0.000194355
6 *5135:A *186:12 1.54008e-05
7 *86:12 *5134:A 0
8 *100:6 *186:12 0.000534026
9 *159:6 *5134:A 0
10 *159:6 *186:12 0
*RES
1 *5175:X *186:12 26.5611 
2 *186:12 *5134:A 24.944 
3 *186:12 *5136:A_N 20.5974 
*END

*D_NET *187 0.0119779
*CONN
*I *5217:A_BM[7] I *D RM_IHPSG13_1P_1024x32_c2_bm_bist
*I *5217:A_BM[6] I *D RM_IHPSG13_1P_1024x32_c2_bm_bist
*I *5217:A_BM[5] I *D RM_IHPSG13_1P_1024x32_c2_bm_bist
*I *5217:A_BM[4] I *D RM_IHPSG13_1P_1024x32_c2_bm_bist
*I *5217:A_BM[3] I *D RM_IHPSG13_1P_1024x32_c2_bm_bist
*I *5217:A_BM[2] I *D RM_IHPSG13_1P_1024x32_c2_bm_bist
*I *5217:A_BM[1] I *D RM_IHPSG13_1P_1024x32_c2_bm_bist
*I *5217:A_BM[0] I *D RM_IHPSG13_1P_1024x32_c2_bm_bist
*I *5176:X O *D sg13g2_buf_1
*CAP
1 *5217:A_BM[7] 0.000517211
2 *5217:A_BM[6] 4.43092e-05
3 *5217:A_BM[5] 4.88899e-05
4 *5217:A_BM[4] 4.88899e-05
5 *5217:A_BM[3] 5.87057e-05
6 *5217:A_BM[2] 4.43092e-05
7 *5217:A_BM[1] 4.75811e-05
8 *5217:A_BM[0] 0.000103603
9 *5176:X 0.000605809
10 *187:82 0.00103396
11 *187:72 0.000972292
12 *187:62 0.000961326
13 *187:52 0.00097863
14 *187:42 0.000964591
15 *187:32 0.00100819
16 *187:16 0.000602379
17 *187:14 0.000863864
18 *187:10 0.00146967
19 *5217:A_BM[7] *223:11 0.00012376
20 *5217:A_BM[6] *222:9 7.6363e-05
21 *5217:A_BM[5] *221:11 6.08691e-05
22 *5217:A_BM[4] *220:13 6.08691e-05
23 *5217:A_BM[3] *219:13 2.76678e-05
24 *5217:A_BM[2] *216:11 7.6363e-05
25 *5217:A_BM[1] *204:9 6.52959e-05
26 *5217:A_BM[0] *191:11 6.11612e-05
27 *187:42 *216:11 7.54233e-05
28 *187:52 *216:11 7.93856e-05
29 *187:52 *219:13 8.51593e-05
30 *187:62 *219:13 0.000159556
31 *187:62 *220:13 7.86513e-05
32 *187:72 *220:13 0.000143967
33 *187:72 *221:11 3.98814e-05
34 *5217:A_DIN[8] *5217:A_BM[7] 0
35 *5217:A_DIN[7] *5217:A_BM[7] 3.2363e-05
36 *5217:A_DIN[7] *5217:A_BM[6] 0
37 *5217:A_DIN[6] *5217:A_BM[5] 0
38 *5217:A_DIN[6] *187:82 3.22104e-05
39 *5217:A_DIN[5] *5217:A_BM[4] 0
40 *5217:A_DIN[5] *187:72 9.98385e-05
41 *5217:A_DIN[4] *5217:A_BM[3] 0
42 *5217:A_DIN[4] *187:62 0
43 *5217:A_DIN[3] *5217:A_BM[2] 0
44 *5217:A_DIN[2] *5217:A_BM[1] 0
45 *5217:A_DIN[1] *5217:A_BM[0] 0
46 *5217:A_DIN[1] *187:32 6.01277e-05
47 *175:16 *187:42 0.000119725
48 *178:16 *187:52 4.50945e-05
*RES
1 *5176:X *187:10 46.8186 
2 *187:10 *187:14 31.3506 
3 *187:14 *187:16 20 
4 *187:16 *5217:A_BM[0] 20.9219 
5 *187:16 *187:32 6.2212 
6 *187:32 *5217:A_BM[1] 20.5098 
7 *187:32 *187:42 5.9019 
8 *187:42 *5217:A_BM[2] 20.5098 
9 *187:42 *187:52 5.9122 
10 *187:52 *5217:A_BM[3] 20.5098 
11 *187:52 *187:62 5.8607 
12 *187:62 *5217:A_BM[4] 20.5098 
13 *187:62 *187:72 5.8916 
14 *187:72 *5217:A_BM[5] 20.5098 
15 *187:72 *187:82 5.8607 
16 *187:82 *5217:A_BM[6] 20.5098 
17 *187:82 *5217:A_BM[7] 26.4221 
*END

*D_NET *188 0.0125028
*CONN
*I *5217:A_BM[15] I *D RM_IHPSG13_1P_1024x32_c2_bm_bist
*I *5217:A_BM[14] I *D RM_IHPSG13_1P_1024x32_c2_bm_bist
*I *5217:A_BM[13] I *D RM_IHPSG13_1P_1024x32_c2_bm_bist
*I *5217:A_BM[12] I *D RM_IHPSG13_1P_1024x32_c2_bm_bist
*I *5217:A_BM[11] I *D RM_IHPSG13_1P_1024x32_c2_bm_bist
*I *5217:A_BM[10] I *D RM_IHPSG13_1P_1024x32_c2_bm_bist
*I *5217:A_BM[9] I *D RM_IHPSG13_1P_1024x32_c2_bm_bist
*I *5217:A_BM[8] I *D RM_IHPSG13_1P_1024x32_c2_bm_bist
*I *5177:X O *D sg13g2_buf_1
*CAP
1 *5217:A_BM[15] 0.000494852
2 *5217:A_BM[14] 4.43092e-05
3 *5217:A_BM[13] 4.75811e-05
4 *5217:A_BM[12] 4.88899e-05
5 *5217:A_BM[11] 4.88899e-05
6 *5217:A_BM[10] 4.88899e-05
7 *5217:A_BM[9] 4.88899e-05
8 *5217:A_BM[8] 0.000102599
9 *5177:X 0.000578785
10 *188:80 0.00100746
11 *188:70 0.000979859
12 *188:60 0.000950995
13 *188:50 0.000960281
14 *188:40 0.000990719
15 *188:30 0.000991685
16 *188:16 0.000576831
17 *188:14 0.00108508
18 *188:10 0.00166387
19 *5217:A_BM[15] *197:13 0.000132832
20 *5217:A_BM[15] *198:13 0.000139293
21 *5217:A_BM[14] *197:13 7.6363e-05
22 *5217:A_BM[13] *196:11 6.52959e-05
23 *5217:A_BM[12] *195:13 6.08691e-05
24 *5217:A_BM[11] *194:13 6.08691e-05
25 *5217:A_BM[10] *193:13 6.08691e-05
26 *5217:A_BM[9] *226:11 6.08691e-05
27 *5217:A_BM[8] *224:9 0.000108962
28 *188:10 *5215:A 0
29 *188:14 *224:13 0
30 *188:30 *226:11 5.70603e-05
31 *188:40 *193:13 7.88588e-05
32 *188:50 *193:13 0.000117244
33 *188:50 *194:13 7.86168e-05
34 *188:60 *194:13 0.000148421
35 *188:60 *195:13 7.87897e-05
36 *188:70 *195:13 7.27047e-05
37 *188:80 *197:13 7.54233e-05
38 *5217:A_DIN[15] *5217:A_BM[14] 0
39 *5217:A_DIN[14] *5217:A_BM[13] 0
40 *5217:A_DIN[13] *5217:A_BM[12] 0
41 *5217:A_DIN[12] *5217:A_BM[11] 0
42 *5217:A_DIN[11] *5217:A_BM[10] 0
43 *5217:A_DIN[11] *188:50 0
44 *5217:A_DIN[10] *5217:A_BM[9] 0
45 *5217:A_DIN[10] *188:40 4.72419e-05
46 *5217:A_DIN[9] *5217:A_BM[8] 0
47 *144:16 *188:60 0.000110887
48 *155:16 *188:70 3.65051e-05
49 *156:16 *188:80 6.66935e-05
50 *157:16 *5217:A_BM[15] 9.76288e-05
51 *185:10 *188:10 0
52 *185:14 *188:14 0
*RES
1 *5177:X *188:10 46.3242 
2 *188:10 *188:14 31.3506 
3 *188:14 *188:16 20 
4 *188:16 *5217:A_BM[8] 21.0763 
5 *188:16 *188:30 5.9534 
6 *188:30 *5217:A_BM[9] 20.5098 
7 *188:30 *188:40 5.8916 
8 *188:40 *5217:A_BM[10] 20.5098 
9 *188:40 *188:50 5.8916 
10 *188:50 *5217:A_BM[11] 20.5098 
11 *188:50 *188:60 5.8916 
12 *188:60 *5217:A_BM[12] 20.5098 
13 *188:60 *188:70 5.8916 
14 *188:70 *5217:A_BM[13] 20.5098 
15 *188:70 *188:80 5.9019 
16 *188:80 *5217:A_BM[14] 20.5098 
17 *188:80 *5217:A_BM[15] 26.3911 
*END

*D_NET *189 0.0114368
*CONN
*I *5217:A_BM[23] I *D RM_IHPSG13_1P_1024x32_c2_bm_bist
*I *5217:A_BM[22] I *D RM_IHPSG13_1P_1024x32_c2_bm_bist
*I *5217:A_BM[21] I *D RM_IHPSG13_1P_1024x32_c2_bm_bist
*I *5217:A_BM[20] I *D RM_IHPSG13_1P_1024x32_c2_bm_bist
*I *5217:A_BM[19] I *D RM_IHPSG13_1P_1024x32_c2_bm_bist
*I *5217:A_BM[18] I *D RM_IHPSG13_1P_1024x32_c2_bm_bist
*I *5217:A_BM[17] I *D RM_IHPSG13_1P_1024x32_c2_bm_bist
*I *5217:A_BM[16] I *D RM_IHPSG13_1P_1024x32_c2_bm_bist
*I *5178:X O *D sg13g2_buf_1
*CAP
1 *5217:A_BM[23] 0.000520309
2 *5217:A_BM[22] 4.43092e-05
3 *5217:A_BM[21] 4.88899e-05
4 *5217:A_BM[20] 5.87057e-05
5 *5217:A_BM[19] 4.88899e-05
6 *5217:A_BM[18] 6.06689e-05
7 *5217:A_BM[17] 5.4125e-05
8 *5217:A_BM[16] 0.000277652
9 *5178:X 0.000554074
10 *189:84 0.0010494
11 *189:74 0.00100533
12 *189:64 0.00098125
13 *189:54 0.00096834
14 *189:44 0.00100459
15 *189:34 0.0008273
16 *189:16 0.000575469
17 *189:14 0.000846511
18 *189:10 0.00140059
19 *5217:A_BM[16] *199:11 0.00011826
20 *5217:A_BM[17] *200:9 4.31617e-05
21 *5217:A_BM[18] *201:11 2.10275e-05
22 *5217:A_BM[19] *202:11 6.08691e-05
23 *5217:A_BM[20] *205:11 2.76678e-05
24 *5217:A_BM[21] *206:11 6.08691e-05
25 *5217:A_BM[22] *207:9 7.6363e-05
26 *5217:A_BM[23] *208:11 4.31617e-05
27 *189:14 *199:17 0
28 *189:54 *201:11 4.72419e-05
29 *189:54 *202:11 5.93971e-05
30 *189:64 *202:11 5.63282e-05
31 *189:74 *205:11 6.33791e-05
32 *189:84 *206:11 4.18735e-05
33 *5217:A_DIN[16] *5217:A_BM[17] 0
34 *5217:A_DIN[16] *189:34 3.22104e-05
35 *5217:A_DIN[17] *5217:A_BM[18] 0
36 *5217:A_DIN[17] *189:44 3.22104e-05
37 *5217:A_DIN[18] *5217:A_BM[19] 0
38 *5217:A_DIN[18] *189:54 4.09551e-05
39 *5217:A_DIN[19] *5217:A_BM[20] 0
40 *5217:A_DIN[19] *189:64 0.000125668
41 *5217:A_DIN[20] *5217:A_BM[21] 0
42 *5217:A_DIN[20] *189:74 4.73972e-05
43 *5217:A_DIN[21] *5217:A_BM[22] 0
44 *5217:A_DIN[22] *5217:A_BM[23] 0.00011241
45 *158:8 *189:10 0
46 *158:12 *189:14 0
*RES
1 *5178:X *189:10 46.077 
2 *189:10 *189:14 31.3506 
3 *189:14 *189:16 20 
4 *189:16 *5217:A_BM[16] 23.3836 
5 *189:16 *189:34 3.8522 
6 *189:34 *5217:A_BM[17] 20.5098 
7 *189:34 *189:44 5.8916 
8 *189:44 *5217:A_BM[18] 20.5098 
9 *189:44 *189:54 5.8916 
10 *189:54 *5217:A_BM[19] 20.5098 
11 *189:54 *189:64 5.8607 
12 *189:64 *5217:A_BM[20] 20.5098 
13 *189:64 *189:74 5.9225 
14 *189:74 *5217:A_BM[21] 20.5098 
15 *189:74 *189:84 5.9019 
16 *189:84 *5217:A_BM[22] 20.5098 
17 *189:84 *5217:A_BM[23] 26.3911 
*END

*D_NET *190 0.0143618
*CONN
*I *5217:A_BM[26] I *D RM_IHPSG13_1P_1024x32_c2_bm_bist
*I *5217:A_BM[31] I *D RM_IHPSG13_1P_1024x32_c2_bm_bist
*I *5217:A_BM[30] I *D RM_IHPSG13_1P_1024x32_c2_bm_bist
*I *5217:A_BM[29] I *D RM_IHPSG13_1P_1024x32_c2_bm_bist
*I *5217:A_BM[28] I *D RM_IHPSG13_1P_1024x32_c2_bm_bist
*I *5217:A_BM[27] I *D RM_IHPSG13_1P_1024x32_c2_bm_bist
*I *5217:A_BM[25] I *D RM_IHPSG13_1P_1024x32_c2_bm_bist
*I *5217:A_BM[24] I *D RM_IHPSG13_1P_1024x32_c2_bm_bist
*I *5179:X O *D sg13g2_buf_1
*CAP
1 *5217:A_BM[26] 7.86913e-05
2 *5217:A_BM[31] 0.000511933
3 *5217:A_BM[30] 6.06689e-05
4 *5217:A_BM[29] 5.4125e-05
5 *5217:A_BM[28] 4.88899e-05
6 *5217:A_BM[27] 5.21618e-05
7 *5217:A_BM[25] 0.000107347
8 *5217:A_BM[24] 0.000650083
9 *5179:X 0.000774978
10 *190:80 0.0010632
11 *190:70 0.00100802
12 *190:60 0.000962235
13 *190:50 0.000990972
14 *190:46 0.00098599
15 *190:18 0.000841869
16 *190:16 0.00109929
17 *190:10 0.0013713
18 *5217:A_BM[24] *209:9 2.99332e-05
19 *5217:A_BM[25] *210:11 8.66487e-05
20 *5217:A_BM[26] *211:11 8.66487e-05
21 *5217:A_BM[27] *212:11 4.9802e-05
22 *5217:A_BM[28] *213:11 6.08691e-05
23 *5217:A_BM[29] *215:11 4.31617e-05
24 *5217:A_BM[30] *217:11 2.10275e-05
25 *5217:A_BM[31] *217:11 0.000153026
26 *5217:A_BM[31] *218:11 6.08691e-05
27 *190:16 *209:19 0
28 *190:18 *210:11 0.000111661
29 *190:46 *210:11 0.000498491
30 *190:50 *211:11 0.000197482
31 *190:60 *212:11 0.000228418
32 *190:70 *213:11 0.000151921
33 *190:80 *215:11 0
34 *5217:A_DIN[23] *5217:A_BM[24] 0.000139209
35 *5217:A_DIN[23] *190:18 0
36 *5217:A_BIST_DIN[23] *5217:A_BM[24] 0
37 *5217:A_DIN[24] *5217:A_BM[24] 0.000282005
38 *5217:A_DIN[24] *5217:A_BM[25] 0
39 *5217:A_DIN[25] *5217:A_BM[26] 0
40 *5217:A_DIN[25] *190:46 4.61978e-05
41 *5217:A_DIN[26] *5217:A_BM[27] 0
42 *5217:A_DIN[27] *5217:A_BM[28] 0
43 *5217:A_DIN[27] *190:60 4.73972e-05
44 *5217:A_DIN[28] *5217:A_BM[29] 0
45 *5217:A_DIN[28] *190:70 8.45261e-05
46 *5217:A_DIN[29] *5217:A_BM[30] 0
47 *5217:A_DIN[29] *190:80 0.00011683
48 *5217:A_DIN[30] *5217:A_BM[31] 4.09551e-05
49 *167:10 *190:16 0.00116295
*RES
1 *5179:X *190:10 48.5799 
2 *190:10 *190:16 47.6735 
3 *190:16 *190:18 0.8446 
4 *190:18 *5217:A_BM[24] 26.9886 
5 *190:18 *5217:A_BM[25] 21.097 
6 *190:16 *190:46 5.3663 
7 *190:46 *190:50 6.3551 
8 *190:50 *5217:A_BM[27] 20.5098 
9 *190:50 *190:60 5.9019 
10 *190:60 *5217:A_BM[28] 20.5098 
11 *190:60 *190:70 5.8916 
12 *190:70 *5217:A_BM[29] 20.5098 
13 *190:70 *190:80 5.8916 
14 *190:80 *5217:A_BM[30] 20.5098 
15 *190:80 *5217:A_BM[31] 26.4014 
16 *190:46 *5217:A_BM[26] 20.9837 
*END

*D_NET *191 0.00847404
*CONN
*I *5185:A I *D sg13g2_buf_1
*I *5217:A_DOUT[0] O *D RM_IHPSG13_1P_1024x32_c2_bm_bist
*CAP
1 *5185:A 0
2 *5217:A_DOUT[0] 0.000229149
3 *191:19 0
4 *191:15 0.00155719
5 *191:11 0.00178634
6 *191:11 *5217:A_BIST_BM[0] 0
7 *191:15 *204:21 0.0048402
8 *5217:A_BM[0] *191:11 6.11612e-05
9 *163:20 *191:15 0
*RES
1 *5217:A_DOUT[0] *191:11 42.436 
2 *191:11 *191:15 45.0702 
3 *191:15 *191:19 40 
4 *191:19 *5185:A 40 
*END

*D_NET *192 0.00371256
*CONN
*I *5217:A_ADDR[4] I *D RM_IHPSG13_1P_1024x32_c2_bm_bist
*I *5180:X O *D sg13g2_buf_1
*CAP
1 *5217:A_ADDR[4] 6.70968e-05
2 *5180:X 0.000956979
3 *192:16 0.000855875
4 *192:8 0.00174576
5 *5217:A_ADDR[4] *5217:A_BIST_ADDR[4] 8.68538e-05
6 *192:8 *203:8 0
7 *192:16 *203:16 0
8 *5217:A_ADDR[9] *5217:A_ADDR[4] 0
9 *89:10 *192:8 0
10 *89:14 *192:16 0
*RES
1 *5180:X *192:8 49.1876 
2 *192:8 *192:16 48.0494 
3 *192:16 *5217:A_ADDR[4] 20.7262 
*END

*D_NET *193 0.00339482
*CONN
*I *5186:A I *D sg13g2_buf_1
*I *5217:A_DOUT[10] O *D RM_IHPSG13_1P_1024x32_c2_bm_bist
*CAP
1 *5186:A 0
2 *5217:A_DOUT[10] 0.000731775
3 *193:19 0.000837152
4 *193:13 0.00156893
5 *193:13 *5217:A_BIST_BM[10] 0
6 *5142:A *193:19 0
7 *5217:A_BM[10] *193:13 6.08691e-05
8 *133:10 *193:19 0
9 *133:14 *193:13 0
10 *188:40 *193:13 7.88588e-05
11 *188:50 *193:13 0.000117244
*RES
1 *5217:A_DOUT[10] *193:13 49.5275 
2 *193:13 *193:19 49.6202 
3 *193:19 *5186:A 20 
*END

*D_NET *194 0.00349186
*CONN
*I *5187:A I *D sg13g2_buf_1
*I *5217:A_DOUT[11] O *D RM_IHPSG13_1P_1024x32_c2_bm_bist
*CAP
1 *5187:A 0
2 *5217:A_DOUT[11] 0.000737249
3 *194:19 0.000837152
4 *194:13 0.0015744
5 *194:13 *5217:A_BIST_BM[11] 5.5154e-05
6 *5143:A *194:19 0
7 *5217:A_BM[11] *194:13 6.08691e-05
8 *144:8 *194:19 0
9 *144:16 *194:13 0
10 *188:50 *194:13 7.86168e-05
11 *188:60 *194:13 0.000148421
*RES
1 *5217:A_DOUT[11] *194:13 49.6717 
2 *194:13 *194:19 49.6202 
3 *194:19 *5187:A 20 
*END

*D_NET *195 0.0033209
*CONN
*I *5188:A I *D sg13g2_buf_1
*I *5217:A_DOUT[12] O *D RM_IHPSG13_1P_1024x32_c2_bm_bist
*CAP
1 *5188:A 0
2 *5217:A_DOUT[12] 0.000751364
3 *195:19 0.000802901
4 *195:13 0.00155427
5 *195:13 *5217:A_BIST_BM[12] 0
6 *5144:A *195:19 0
7 *5217:A_BM[12] *195:13 6.08691e-05
8 *155:8 *195:19 0
9 *155:16 *195:13 0
10 *188:60 *195:13 7.87897e-05
11 *188:70 *195:13 7.27047e-05
*RES
1 *5217:A_DOUT[12] *195:13 49.7541 
2 *195:13 *195:19 49.1876 
3 *195:19 *5188:A 20 
*END

*D_NET *196 0.00336085
*CONN
*I *5189:A I *D sg13g2_buf_1
*I *5217:A_DOUT[13] O *D RM_IHPSG13_1P_1024x32_c2_bm_bist
*CAP
1 *5189:A 0.000844969
2 *5217:A_DOUT[13] 0.000651566
3 *196:17 0.000925618
4 *196:11 0.000732215
5 *5145:A *5189:A 0
6 *5217:A_DIN[14] *196:11 0
7 *5217:A_BIST_DIN[14] *196:11 0
8 *5217:A_BM[13] *196:11 6.52959e-05
9 *5217:A_BIST_BM[13] *196:11 0.000141189
10 *156:8 *5189:A 0
11 *156:16 *196:11 0
*RES
1 *5217:A_DOUT[13] *196:11 48.616 
2 *196:11 *196:17 40.8446 
3 *196:17 *5189:A 29.6202 
*END

*D_NET *197 0.00341534
*CONN
*I *5190:A I *D sg13g2_buf_1
*I *5217:A_DOUT[14] O *D RM_IHPSG13_1P_1024x32_c2_bm_bist
*CAP
1 *5190:A 0
2 *5217:A_DOUT[14] 0.000728209
3 *197:19 0.000837152
4 *197:13 0.00156536
5 *5146:A *197:19 0
6 *5217:A_BM[15] *197:13 0.000132832
7 *5217:A_BM[14] *197:13 7.6363e-05
8 *5217:A_BIST_BM[14] *197:13 0
9 *157:8 *197:19 0
10 *157:16 *197:13 0
11 *188:80 *197:13 7.54233e-05
*RES
1 *5217:A_DOUT[14] *197:13 49.5841 
2 *197:13 *197:19 49.6202 
3 *197:19 *5190:A 20 
*END

*D_NET *198 0.00326859
*CONN
*I *5191:A I *D sg13g2_buf_1
*I *5217:A_DOUT[15] O *D RM_IHPSG13_1P_1024x32_c2_bm_bist
*CAP
1 *5191:A 0
2 *5217:A_DOUT[15] 0.000727495
3 *198:19 0.000837152
4 *198:13 0.00156465
5 *5217:A_BM[15] *198:13 0.000139293
6 *5217:A_BIST_BM[15] *198:13 0
*RES
1 *5217:A_DOUT[15] *198:13 49.2597 
2 *198:13 *198:19 49.6202 
3 *198:19 *5191:A 20 
*END

*D_NET *199 0.00306506
*CONN
*I *5192:A I *D sg13g2_buf_1
*I *5217:A_DOUT[16] O *D RM_IHPSG13_1P_1024x32_c2_bm_bist
*CAP
1 *5192:A 0
2 *5217:A_DOUT[16] 0.00010179
3 *199:17 0.00137161
4 *199:11 0.0014734
5 *5217:A_BM[16] *199:11 0.00011826
6 *5217:A_BIST_BM[16] *199:11 0
7 *189:14 *199:17 0
*RES
1 *5217:A_DOUT[16] *199:11 40.9476 
2 *199:11 *199:17 38.2516 
3 *199:17 *5192:A 40 
*END

*D_NET *200 0.00312105
*CONN
*I *5193:A I *D sg13g2_buf_1
*I *5217:A_DOUT[17] O *D RM_IHPSG13_1P_1024x32_c2_bm_bist
*CAP
1 *5193:A 0.000536862
2 *5217:A_DOUT[17] 0.000113456
3 *200:15 0.00142549
4 *200:9 0.00100208
5 *5147:A *5193:A 0
6 *5217:A_BIST_DIN[16] *200:9 0
7 *5217:A_BM[17] *200:9 4.31617e-05
8 *5217:A_BIST_BM[17] *200:9 0
9 *158:8 *5193:A 0
10 *158:12 *200:15 0
*RES
1 *5217:A_DOUT[17] *200:9 40.9425 
2 *200:9 *200:15 31.7317 
3 *200:15 *5193:A 46.1594 
*END

*D_NET *201 0.00322381
*CONN
*I *5194:A I *D sg13g2_buf_1
*I *5217:A_DOUT[18] O *D RM_IHPSG13_1P_1024x32_c2_bm_bist
*CAP
1 *5194:A 0.000540771
2 *5217:A_DOUT[18] 0.000126012
3 *201:17 0.00145176
4 *201:11 0.001037
5 *5217:A_BM[18] *201:11 2.10275e-05
6 *5217:A_BIST_BM[18] *201:11 0
7 *160:10 *5194:A 0
8 *160:14 *201:17 0
9 *189:54 *201:11 4.72419e-05
*RES
1 *5217:A_DOUT[18] *201:11 40.9528 
2 *201:11 *201:17 31.948 
3 *201:17 *5194:A 46.1594 
*END

*D_NET *202 0.00361935
*CONN
*I *5195:A I *D sg13g2_buf_1
*I *5217:A_DOUT[19] O *D RM_IHPSG13_1P_1024x32_c2_bm_bist
*CAP
1 *5195:A 0.000588139
2 *5217:A_DOUT[19] 0.000124065
3 *202:17 0.00159732
4 *202:11 0.00113324
5 *5217:A_BM[19] *202:11 6.08691e-05
6 *5217:A_BIST_BM[19] *202:11 0
7 *161:14 *202:17 0
8 *189:54 *202:11 5.93971e-05
9 *189:64 *202:11 5.63282e-05
*RES
1 *5217:A_DOUT[19] *202:11 41.2669 
2 *202:11 *202:17 32.9368 
3 *202:17 *5195:A 46.5096 
*END

*D_NET *203 0.00390377
*CONN
*I *5217:A_ADDR[5] I *D RM_IHPSG13_1P_1024x32_c2_bm_bist
*I *5181:X O *D sg13g2_buf_1
*CAP
1 *5217:A_ADDR[5] 6.9315e-05
2 *5181:X 0.000979256
3 *203:16 0.000885831
4 *203:8 0.00179577
5 *5217:A_ADDR[5] *5217:A_BIST_ADDR[4] 8.67404e-05
6 *5217:A_ADDR[5] *5217:A_BIST_ADDR[5] 8.68538e-05
7 *170:8 *203:8 0
8 *170:16 *203:16 0
9 *192:8 *203:8 0
10 *192:16 *203:16 0
*RES
1 *5181:X *203:8 49.1876 
2 *203:8 *203:16 48.0803 
3 *203:16 *5217:A_ADDR[5] 20.7262 
*END

*D_NET *204 0.0141702
*CONN
*I *5196:A I *D sg13g2_buf_1
*I *5217:A_DOUT[1] O *D RM_IHPSG13_1P_1024x32_c2_bm_bist
*CAP
1 *5196:A 0
2 *5217:A_DOUT[1] 6.35678e-05
3 *204:27 0.000224171
4 *204:21 0.00136346
5 *204:15 0.00161155
6 *204:9 0.000535829
7 *204:9 *5217:A_BIST_BM[1] 0.00010866
8 *5217:A_DIN[2] *204:9 0
9 *5217:A_BM[1] *204:9 6.52959e-05
10 *5217:A_DIN[0] *204:27 0
11 *163:20 *204:15 0.000146568
12 *163:20 *204:21 0.00521093
13 *191:15 *204:21 0.0048402
*RES
1 *5217:A_DOUT[1] *204:9 40.7262 
2 *204:9 *204:15 26.1285 
3 *204:15 *204:21 46.1105 
4 *204:21 *204:27 42.8222 
5 *204:27 *5196:A 20 
*END

*D_NET *205 0.00332886
*CONN
*I *5197:A I *D sg13g2_buf_1
*I *5217:A_DOUT[20] O *D RM_IHPSG13_1P_1024x32_c2_bm_bist
*CAP
1 *5197:A 0.00054592
2 *5217:A_DOUT[20] 0.000125938
3 *205:17 0.00149297
4 *205:11 0.00107298
5 *5217:A_BM[20] *205:11 2.76678e-05
6 *5217:A_BIST_BM[20] *205:11 0
7 *162:12 *205:17 0
8 *189:74 *205:11 6.33791e-05
*RES
1 *5217:A_DOUT[20] *205:11 41.03 
2 *205:11 *205:17 32.1952 
3 *205:17 *5197:A 46.1594 
*END

*D_NET *206 0.00322042
*CONN
*I *5198:A I *D sg13g2_buf_1
*I *5217:A_DOUT[21] O *D RM_IHPSG13_1P_1024x32_c2_bm_bist
*CAP
1 *5198:A 0.000536862
2 *5217:A_DOUT[21] 0.000112745
3 *206:17 0.0014461
4 *206:11 0.00102198
5 *5217:A_BM[21] *206:11 6.08691e-05
6 *5217:A_BIST_BM[21] *206:11 0
7 *164:8 *5198:A 0
8 *164:12 *206:17 0
9 *189:84 *206:11 4.18735e-05
*RES
1 *5217:A_DOUT[21] *206:11 40.927 
2 *206:11 *206:17 31.948 
3 *206:17 *5198:A 46.1594 
*END

*D_NET *207 0.00317132
*CONN
*I *5199:A I *D sg13g2_buf_1
*I *5217:A_DOUT[22] O *D RM_IHPSG13_1P_1024x32_c2_bm_bist
*CAP
1 *5199:A 0.000502612
2 *5217:A_DOUT[22] 0.00010109
3 *207:15 0.00144639
4 *207:9 0.00104487
5 *5154:A *5199:A 0
6 *5217:A_DIN[21] *207:9 0
7 *5217:A_BM[22] *207:9 7.6363e-05
8 *5217:A_BIST_BM[22] *207:9 0
9 *165:10 *5199:A 0
10 *165:14 *207:15 0
*RES
1 *5217:A_DOUT[22] *207:9 40.9425 
2 *207:9 *207:15 32.4115 
3 *207:15 *5199:A 45.7268 
*END

*D_NET *208 0.00304226
*CONN
*I *5200:A I *D sg13g2_buf_1
*I *5217:A_DOUT[23] O *D RM_IHPSG13_1P_1024x32_c2_bm_bist
*CAP
1 *5200:A 0
2 *5217:A_DOUT[23] 0.000128901
3 *208:17 0.00137065
4 *208:11 0.00149955
5 *5217:A_BM[23] *208:11 4.31617e-05
6 *5217:A_BIST_BM[23] *208:11 0
7 *166:10 *208:17 0
*RES
1 *5217:A_DOUT[23] *208:11 40.9528 
2 *208:11 *208:17 38.2516 
3 *208:17 *5200:A 40 
*END

*D_NET *209 0.00419917
*CONN
*I *5201:A I *D sg13g2_buf_1
*I *5217:A_DOUT[24] O *D RM_IHPSG13_1P_1024x32_c2_bm_bist
*CAP
1 *5201:A 0
2 *5217:A_DOUT[24] 0.00012724
3 *209:19 0.00137904
4 *209:15 0.00195738
5 *209:9 0.000705578
6 *209:19 *210:15 0
7 *5217:A_BIST_DIN[23] *209:9 0
8 *5217:A_BM[24] *209:9 2.99332e-05
9 *5217:A_BIST_BM[24] *209:9 0
10 *167:10 *209:19 0
11 *190:16 *209:19 0
*RES
1 *5217:A_DOUT[24] *209:9 40.9425 
2 *209:9 *209:15 47.519 
3 *209:15 *209:19 37.1907 
4 *209:19 *5201:A 40 
*END

*D_NET *210 0.00409648
*CONN
*I *5202:A I *D sg13g2_buf_1
*I *5217:A_DOUT[25] O *D RM_IHPSG13_1P_1024x32_c2_bm_bist
*CAP
1 *5202:A 0
2 *5217:A_DOUT[25] 0.000263708
3 *210:15 0.00140661
4 *210:11 0.00167031
5 *5217:A_DIN[23] *210:11 5.90523e-05
6 *5217:A_BM[25] *210:11 8.66487e-05
7 *5217:A_BIST_BM[25] *210:11 0
8 *167:10 *210:15 0
9 *169:12 *210:15 0
10 *190:18 *210:11 0.000111661
11 *190:46 *210:11 0.000498491
12 *209:19 *210:15 0
*RES
1 *5217:A_DOUT[25] *210:11 43.4814 
2 *210:11 *210:15 23.0894 
3 *210:15 *5202:A 40 
*END

*D_NET *211 0.00318665
*CONN
*I *5203:A I *D sg13g2_buf_1
*I *5217:A_DOUT[26] O *D RM_IHPSG13_1P_1024x32_c2_bm_bist
*CAP
1 *5203:A 0
2 *5217:A_DOUT[26] 0.000158434
3 *211:15 0.00129282
4 *211:11 0.00145126
5 *5217:A_BM[26] *211:11 8.66487e-05
6 *5217:A_BIST_BM[26] *211:11 0
7 *190:50 *211:11 0.000197482
*RES
1 *5217:A_DOUT[26] *211:11 41.648 
2 *211:11 *211:15 37.407 
3 *211:15 *5203:A 40 
*END

*D_NET *212 0.00318588
*CONN
*I *5204:A I *D sg13g2_buf_1
*I *5217:A_DOUT[27] O *D RM_IHPSG13_1P_1024x32_c2_bm_bist
*CAP
1 *5204:A 0
2 *5217:A_DOUT[27] 0.000161007
3 *212:15 0.00129282
4 *212:11 0.00145383
5 *5217:A_DIN[26] *212:11 0
6 *5217:A_BM[27] *212:11 4.9802e-05
7 *5217:A_BIST_BM[27] *212:11 0
8 *190:60 *212:11 0.000228418
*RES
1 *5217:A_DOUT[27] *212:11 41.7922 
2 *212:11 *212:15 37.407 
3 *212:15 *5204:A 40 
*END

*D_NET *213 0.00309773
*CONN
*I *5205:A I *D sg13g2_buf_1
*I *5217:A_DOUT[28] O *D RM_IHPSG13_1P_1024x32_c2_bm_bist
*CAP
1 *5205:A 0
2 *5217:A_DOUT[28] 0.000149645
3 *213:15 0.00129282
4 *213:11 0.00144247
5 *5217:A_BM[28] *213:11 6.08691e-05
6 *5217:A_BIST_BM[28] *213:11 0
7 *172:10 *213:15 0
8 *190:70 *213:11 0.000151921
*RES
1 *5217:A_DOUT[28] *213:11 41.442 
2 *213:11 *213:15 37.407 
3 *213:15 *5205:A 40 
*END

*D_NET *214 0.00363347
*CONN
*I *5217:A_ADDR[6] I *D RM_IHPSG13_1P_1024x32_c2_bm_bist
*I *5182:X O *D sg13g2_buf_1
*CAP
1 *5217:A_ADDR[6] 6.76678e-05
2 *5182:X 0.000956979
3 *214:16 0.000816387
4 *214:8 0.0017057
5 *5217:A_ADDR[6] *5217:A_BIST_ADDR[6] 8.67404e-05
6 *214:8 *225:6 0
7 *214:16 *225:12 0
*RES
1 *5182:X *214:8 49.1876 
2 *214:8 *214:16 48.2349 
3 *214:16 *5217:A_ADDR[6] 20.7262 
*END

*D_NET *215 0.00303723
*CONN
*I *5206:A I *D sg13g2_buf_1
*I *5217:A_DOUT[29] O *D RM_IHPSG13_1P_1024x32_c2_bm_bist
*CAP
1 *5206:A 0
2 *5217:A_DOUT[29] 0.000222711
3 *215:15 0.00127433
4 *215:11 0.00149704
5 *5217:A_BIST_DIN[28] *215:11 0
6 *5217:A_BM[29] *215:11 4.31617e-05
7 *5217:A_BIST_BM[29] *215:11 0
8 *173:10 *215:15 0
9 *190:80 *215:11 0
*RES
1 *5217:A_DOUT[29] *215:11 41.787 
2 *215:11 *215:15 37.1907 
3 *215:15 *5206:A 40 
*END

*D_NET *216 0.00323706
*CONN
*I *5207:A I *D sg13g2_buf_1
*I *5217:A_DOUT[2] O *D RM_IHPSG13_1P_1024x32_c2_bm_bist
*CAP
1 *5207:A 0.000515828
2 *5217:A_DOUT[2] 0.000127042
3 *216:15 0.0013759
4 *216:11 0.000987116
5 *216:11 *5217:A_BIST_BM[2] 0
6 *5167:A *5207:A 0
7 *5217:A_BM[2] *216:11 7.6363e-05
8 *178:8 *5207:A 0
9 *178:16 *216:15 0
10 *187:42 *216:11 7.54233e-05
11 *187:52 *216:11 7.93856e-05
*RES
1 *5217:A_DOUT[2] *216:11 41.4472 
2 *216:11 *216:15 31.5669 
3 *216:15 *5207:A 45.9431 
*END

*D_NET *217 0.00316356
*CONN
*I *5208:A I *D sg13g2_buf_1
*I *5217:A_DOUT[30] O *D RM_IHPSG13_1P_1024x32_c2_bm_bist
*CAP
1 *5208:A 0
2 *5217:A_DOUT[30] 0.000160897
3 *217:17 0.00133386
4 *217:11 0.00149475
5 *5217:A_BM[30] *217:11 2.10275e-05
6 *5217:A_BIST_BM[30] *217:11 0
7 *5217:A_BM[31] *217:11 0.000153026
8 *174:10 *217:17 0
*RES
1 *5217:A_DOUT[30] *217:11 41.4472 
2 *217:11 *217:17 37.7572 
3 *217:17 *5208:A 40 
*END

*D_NET *218 0.00295771
*CONN
*I *5209:A I *D sg13g2_buf_1
*I *5217:A_DOUT[31] O *D RM_IHPSG13_1P_1024x32_c2_bm_bist
*CAP
1 *5209:A 0
2 *5217:A_DOUT[31] 0.00015526
3 *218:15 0.00129316
4 *218:11 0.00144842
5 *5217:A_BM[31] *218:11 6.08691e-05
6 *5217:A_BIST_BM[31] *218:11 0
7 *176:10 *218:15 0
*RES
1 *5217:A_DOUT[31] *218:11 41.3802 
2 *218:11 *218:15 37.407 
3 *218:15 *5209:A 40 
*END

*D_NET *219 0.00363464
*CONN
*I *5210:A I *D sg13g2_buf_1
*I *5217:A_DOUT[3] O *D RM_IHPSG13_1P_1024x32_c2_bm_bist
*CAP
1 *5210:A 0
2 *5217:A_DOUT[3] 0.000784156
3 *219:21 0.00089697
4 *219:13 0.00168113
5 *219:13 *5217:A_BIST_BM[3] 0
6 *5217:A_BM[3] *219:13 2.76678e-05
7 *179:12 *219:13 0
8 *187:52 *219:13 8.51593e-05
9 *187:62 *219:13 0.000159556
*RES
1 *5217:A_DOUT[3] *219:13 49.7541 
2 *219:13 *219:21 49.9704 
3 *219:21 *5210:A 20 
*END

*D_NET *220 0.0034718
*CONN
*I *5211:A I *D sg13g2_buf_1
*I *5217:A_DOUT[4] O *D RM_IHPSG13_1P_1024x32_c2_bm_bist
*CAP
1 *5211:A 0
2 *5217:A_DOUT[4] 0.000745185
3 *220:19 0.000837152
4 *220:13 0.00158234
5 *220:13 *5217:A_BIST_BM[4] 2.36374e-05
6 *5169:A *220:19 0
7 *5217:A_BM[4] *220:13 6.08691e-05
8 *180:8 *220:19 0
9 *180:12 *220:13 0
10 *187:62 *220:13 7.86513e-05
11 *187:72 *220:13 0.000143967
*RES
1 *5217:A_DOUT[4] *220:13 49.6511 
2 *220:13 *220:19 49.6202 
3 *220:19 *5211:A 20 
*END

*D_NET *221 0.0032188
*CONN
*I *5212:A I *D sg13g2_buf_1
*I *5217:A_DOUT[5] O *D RM_IHPSG13_1P_1024x32_c2_bm_bist
*CAP
1 *5212:A 0.000540886
2 *5217:A_DOUT[5] 0.000105799
3 *221:17 0.00145323
4 *221:11 0.00101814
5 *221:11 *5217:A_BIST_BM[5] 0
6 *5171:A *5212:A 0
7 *5217:A_BM[5] *221:11 6.08691e-05
8 *182:8 *5212:A 0
9 *182:12 *221:17 0
10 *187:72 *221:11 3.98814e-05
*RES
1 *5217:A_DOUT[5] *221:11 40.9167 
2 *221:11 *221:17 31.948 
3 *221:17 *5212:A 46.1594 
*END

*D_NET *222 0.00327078
*CONN
*I *5213:A I *D sg13g2_buf_1
*I *5217:A_DOUT[6] O *D RM_IHPSG13_1P_1024x32_c2_bm_bist
*CAP
1 *5213:A 0.000540771
2 *5217:A_DOUT[6] 7.69925e-05
3 *222:15 0.00144962
4 *222:9 0.000985844
5 *222:9 *5217:A_BIST_BM[6] 0.000141189
6 *5172:A *5213:A 0
7 *5217:A_DIN[7] *222:9 0
8 *5217:A_BIST_DIN[7] *222:9 0
9 *5217:A_BM[6] *222:9 7.6363e-05
10 *183:10 *5213:A 0
11 *183:14 *222:15 0
*RES
1 *5217:A_DOUT[6] *222:9 40.9425 
2 *222:9 *222:15 31.9789 
3 *222:15 *5213:A 46.1594 
*END

*D_NET *223 0.00327079
*CONN
*I *5214:A I *D sg13g2_buf_1
*I *5217:A_DOUT[7] O *D RM_IHPSG13_1P_1024x32_c2_bm_bist
*CAP
1 *5214:A 0.000540771
2 *5217:A_DOUT[7] 0.000101806
3 *223:17 0.00147171
4 *223:11 0.00103275
5 *223:11 *5217:A_BIST_BM[7] 0
6 *5173:A *5214:A 0
7 *5217:A_BM[7] *223:11 0.00012376
8 *184:10 *5214:A 0
9 *184:14 *223:17 0
*RES
1 *5217:A_DOUT[7] *223:11 40.9528 
2 *223:11 *223:17 32.1952 
3 *223:17 *5214:A 46.1594 
*END

*D_NET *224 0.00354285
*CONN
*I *5215:A I *D sg13g2_buf_1
*I *5217:A_DOUT[8] O *D RM_IHPSG13_1P_1024x32_c2_bm_bist
*CAP
1 *5215:A 0.000546959
2 *5217:A_DOUT[8] 9.16404e-05
3 *224:13 0.00160985
4 *224:9 0.00115453
5 *224:9 *5217:A_BIST_BM[8] 1.54556e-05
6 *5177:A *5215:A 1.54556e-05
7 *5217:A_DIN[9] *224:9 0
8 *5217:A_BM[8] *224:9 0.000108962
9 *188:10 *5215:A 0
10 *188:14 *224:13 0
*RES
1 *5217:A_DOUT[8] *224:9 40.9425 
2 *224:9 *224:13 31.1343 
3 *224:13 *5215:A 46.1594 
*END

*D_NET *225 0.00370005
*CONN
*I *5217:A_ADDR[7] I *D RM_IHPSG13_1P_1024x32_c2_bm_bist
*I *5183:X O *D sg13g2_buf_1
*CAP
1 *5217:A_ADDR[7] 9.87505e-05
2 *5183:X 0.00117758
3 *225:12 0.00062442
4 *225:6 0.00170325
5 *5217:A_ADDR[7] *5217:A_BIST_ADDR[6] 6.09608e-05
6 *5217:A_ADDR[7] *5217:A_BIST_ADDR[7] 3.50895e-05
7 *214:8 *225:6 0
8 *214:16 *225:12 0
*RES
1 *5183:X *225:6 31.7832 
2 *225:6 *225:12 45.5105 
3 *225:12 *5217:A_ADDR[7] 40.824 
*END

*D_NET *226 0.00324715
*CONN
*I *5216:A I *D sg13g2_buf_1
*I *5217:A_DOUT[9] O *D RM_IHPSG13_1P_1024x32_c2_bm_bist
*CAP
1 *5216:A 0.000540771
2 *5217:A_DOUT[9] 0.000111498
3 *226:17 0.00145311
4 *226:11 0.00102384
5 *226:11 *5217:A_BIST_BM[9] 0
6 *5141:A *5216:A 0
7 *5217:A_BM[9] *226:11 6.08691e-05
8 *122:8 *5216:A 0
9 *122:12 *226:17 0
10 *188:30 *226:11 5.70603e-05
*RES
1 *5217:A_DOUT[9] *226:11 40.9991 
2 *226:11 *226:17 31.948 
3 *226:17 *5216:A 46.1594 
*END

*D_NET *227 0.000840481
*CONN
*I *5217:A_BIST_ADDR[4] I *D RM_IHPSG13_1P_1024x32_c2_bm_bist
*I *5280:L_LO O *D sg13g2_tielo
*CAP
1 *5217:A_BIST_ADDR[4] 0.000333443
2 *5280:L_LO 0.000333443
3 *5217:A_BIST_ADDR[4] *5217:A_BIST_ADDR[5] 0
4 *5217:A_BIST_ADDR[4] *5217:A_BIST_ADDR[9] 0
5 *5217:A_ADDR[4] *5217:A_BIST_ADDR[4] 8.68538e-05
6 *5217:A_ADDR[5] *5217:A_BIST_ADDR[4] 8.67404e-05
7 *5217:A_ADDR[9] *5217:A_BIST_ADDR[4] 0
*RES
1 *5280:L_LO *5217:A_BIST_ADDR[4] 23.7337 
*END

*D_NET *228 0.00112396
*CONN
*I *5217:A_BIST_ADDR[5] I *D RM_IHPSG13_1P_1024x32_c2_bm_bist
*I *5281:L_LO O *D sg13g2_tielo
*CAP
1 *5217:A_BIST_ADDR[5] 0.000308558
2 *5281:L_LO 0.000308558
3 *5217:A_BIST_ADDR[2] *5217:A_BIST_ADDR[5] 0.000419994
4 *5217:A_BIST_ADDR[4] *5217:A_BIST_ADDR[5] 0
5 *5217:A_ADDR[5] *5217:A_BIST_ADDR[5] 8.68538e-05
*RES
1 *5281:L_LO *5217:A_BIST_ADDR[5] 23.4557 
*END

*D_NET *229 0.000846639
*CONN
*I *5217:A_BIST_ADDR[6] I *D RM_IHPSG13_1P_1024x32_c2_bm_bist
*I *5282:L_LO O *D sg13g2_tielo
*CAP
1 *5217:A_BIST_ADDR[6] 0.000349469
2 *5282:L_LO 0.000349469
3 *5217:A_BIST_ADDR[6] *5217:A_BIST_ADDR[7] 0
4 *5217:A_ADDR[6] *5217:A_BIST_ADDR[6] 8.67404e-05
5 *5217:A_ADDR[7] *5217:A_BIST_ADDR[6] 6.09608e-05
*RES
1 *5282:L_LO *5217:A_BIST_ADDR[6] 23.538 
*END

*D_NET *230 0.000712628
*CONN
*I *5217:A_BIST_ADDR[7] I *D RM_IHPSG13_1P_1024x32_c2_bm_bist
*I *5283:L_LO O *D sg13g2_tielo
*CAP
1 *5217:A_BIST_ADDR[7] 0.000338769
2 *5283:L_LO 0.000338769
3 *5217:A_BIST_ADDR[6] *5217:A_BIST_ADDR[7] 0
4 *5217:A_ADDR[7] *5217:A_BIST_ADDR[7] 3.50895e-05
*RES
1 *5283:L_LO *5217:A_BIST_ADDR[7] 23.5072 
*END

*D_NET *231 0.000724123
*CONN
*I *5217:A_BIST_ADDR[8] I *D RM_IHPSG13_1P_1024x32_c2_bm_bist
*I *5284:L_LO O *D sg13g2_tielo
*CAP
1 *5217:A_BIST_ADDR[8] 0.000318691
2 *5284:L_LO 0.000318691
3 *5217:A_BIST_ADDR[8] *5217:A_ADDR[8] 8.67404e-05
4 *5217:A_BIST_ADDR[8] *5217:A_BIST_ADDR[9] 0
5 *5217:A_DLY *5217:A_BIST_ADDR[8] 0
*RES
1 *5284:L_LO *5217:A_BIST_ADDR[8] 23.7183 
*END

*D_NET *232 0.000667939
*CONN
*I *5217:A_BIST_ADDR[9] I *D RM_IHPSG13_1P_1024x32_c2_bm_bist
*I *5285:L_LO O *D sg13g2_tielo
*CAP
1 *5217:A_BIST_ADDR[9] 0.000306334
2 *5285:L_LO 0.000306334
3 *5217:A_BIST_ADDR[9] *5217:A_ADDR[8] 0
4 *5217:A_BIST_ADDR[4] *5217:A_BIST_ADDR[9] 0
5 *5217:A_BIST_ADDR[8] *5217:A_BIST_ADDR[9] 0
6 *5217:A_ADDR[9] *5217:A_BIST_ADDR[9] 5.52706e-05
*RES
1 *5285:L_LO *5217:A_BIST_ADDR[9] 23.5226 
*END

*D_NET *233 0.00065399
*CONN
*I *5217:A_BIST_BM[0] I *D RM_IHPSG13_1P_1024x32_c2_bm_bist
*I *5286:L_LO O *D sg13g2_tielo
*CAP
1 *5217:A_BIST_BM[0] 0.000326995
2 *5286:L_LO 0.000326995
3 *191:11 *5217:A_BIST_BM[0] 0
*RES
1 *5286:L_LO *5217:A_BIST_BM[0] 23.7209 
*END

*D_NET *234 0.000697851
*CONN
*I *5217:A_BIST_BM[1] I *D RM_IHPSG13_1P_1024x32_c2_bm_bist
*I *5287:L_LO O *D sg13g2_tielo
*CAP
1 *5217:A_BIST_BM[1] 0.000294596
2 *5287:L_LO 0.000294596
3 *234:11 0
4 *204:9 *5217:A_BIST_BM[1] 0.00010866
*RES
1 *5287:L_LO *5217:A_BIST_BM[1] 23.4376 
2 *5217:A_BIST_BM[1] *234:11 0.137333 
*END

*D_NET *235 0.000649239
*CONN
*I *5217:A_BIST_BM[2] I *D RM_IHPSG13_1P_1024x32_c2_bm_bist
*I *5288:L_LO O *D sg13g2_tielo
*CAP
1 *5217:A_BIST_BM[2] 0.00032462
2 *5288:L_LO 0.00032462
3 *216:11 *5217:A_BIST_BM[2] 0
*RES
1 *5288:L_LO *5217:A_BIST_BM[2] 23.7621 
*END

*D_NET *236 0.00295999
*CONN
*I *5217:A_ADDR[8] I *D RM_IHPSG13_1P_1024x32_c2_bm_bist
*I *5184:X O *D sg13g2_buf_1
*CAP
1 *5217:A_ADDR[8] 8.99328e-05
2 *5184:X 0.000502612
3 *236:12 0.000934014
4 *236:8 0.00134669
5 *5217:A_BIST_ADDR[8] *5217:A_ADDR[8] 8.67404e-05
6 *5217:A_BIST_ADDR[9] *5217:A_ADDR[8] 0
7 *89:10 *236:8 0
*RES
1 *5184:X *236:8 45.7268 
2 *236:8 *236:12 31.3506 
3 *236:12 *5217:A_ADDR[8] 40.9012 
*END

*D_NET *237 0.000635435
*CONN
*I *5217:A_BIST_BM[3] I *D RM_IHPSG13_1P_1024x32_c2_bm_bist
*I *5289:L_LO O *D sg13g2_tielo
*CAP
1 *5217:A_BIST_BM[3] 0.000317717
2 *5289:L_LO 0.000317717
3 *5217:A_DIN[4] *5217:A_BIST_BM[3] 0
4 *219:13 *5217:A_BIST_BM[3] 0
*RES
1 *5289:L_LO *5217:A_BIST_BM[3] 23.5561 
*END

*D_NET *238 0.000648965
*CONN
*I *5217:A_BIST_BM[4] I *D RM_IHPSG13_1P_1024x32_c2_bm_bist
*I *5290:L_LO O *D sg13g2_tielo
*CAP
1 *5217:A_BIST_BM[4] 0.000312664
2 *5290:L_LO 0.000312664
3 *238:11 0
4 *220:13 *5217:A_BIST_BM[4] 2.36374e-05
*RES
1 *5290:L_LO *5217:A_BIST_BM[4] 23.3578 
2 *5217:A_BIST_BM[4] *238:11 0.137333 
*END

*D_NET *239 0.000635114
*CONN
*I *5217:A_BIST_BM[5] I *D RM_IHPSG13_1P_1024x32_c2_bm_bist
*I *5291:L_LO O *D sg13g2_tielo
*CAP
1 *5217:A_BIST_BM[5] 0.000317557
2 *5291:L_LO 0.000317557
3 *221:11 *5217:A_BIST_BM[5] 0
*RES
1 *5291:L_LO *5217:A_BIST_BM[5] 23.4557 
*END

*D_NET *240 0.000724929
*CONN
*I *5217:A_BIST_BM[6] I *D RM_IHPSG13_1P_1024x32_c2_bm_bist
*I *5292:L_LO O *D sg13g2_tielo
*CAP
1 *5217:A_BIST_BM[6] 0.00029187
2 *5292:L_LO 0.00029187
3 *240:11 0
4 *222:9 *5217:A_BIST_BM[6] 0.000141189
*RES
1 *5292:L_LO *5217:A_BIST_BM[6] 23.417 
2 *5217:A_BIST_BM[6] *240:11 0.137333 
*END

*D_NET *241 0.000649555
*CONN
*I *5217:A_BIST_BM[7] I *D RM_IHPSG13_1P_1024x32_c2_bm_bist
*I *5293:L_LO O *D sg13g2_tielo
*CAP
1 *5217:A_BIST_BM[7] 0.000324777
2 *5293:L_LO 0.000324777
3 *223:11 *5217:A_BIST_BM[7] 0
*RES
1 *5293:L_LO *5217:A_BIST_BM[7] 23.7415 
*END

*D_NET *242 0.000630576
*CONN
*I *5217:A_BIST_BM[8] I *D RM_IHPSG13_1P_1024x32_c2_bm_bist
*I *5294:L_LO O *D sg13g2_tielo
*CAP
1 *5217:A_BIST_BM[8] 0.00030756
2 *5294:L_LO 0.00030756
3 *224:9 *5217:A_BIST_BM[8] 1.54556e-05
*RES
1 *5294:L_LO *5217:A_BIST_BM[8] 23.5355 
*END

*D_NET *243 0.00065987
*CONN
*I *5217:A_BIST_BM[9] I *D RM_IHPSG13_1P_1024x32_c2_bm_bist
*I *5295:L_LO O *D sg13g2_tielo
*CAP
1 *5217:A_BIST_BM[9] 0.000329935
2 *5295:L_LO 0.000329935
3 *226:11 *5217:A_BIST_BM[9] 0
*RES
1 *5295:L_LO *5217:A_BIST_BM[9] 23.7827 
*END

*D_NET *244 0.000630895
*CONN
*I *5217:A_BIST_BM[10] I *D RM_IHPSG13_1P_1024x32_c2_bm_bist
*I *5296:L_LO O *D sg13g2_tielo
*CAP
1 *5217:A_BIST_BM[10] 0.000315448
2 *5296:L_LO 0.000315448
3 *5217:A_DIN[11] *5217:A_BIST_BM[10] 0
4 *193:13 *5217:A_BIST_BM[10] 0
*RES
1 *5296:L_LO *5217:A_BIST_BM[10] 23.4557 
*END

*D_NET *245 0.000661793
*CONN
*I *5217:A_BIST_BM[11] I *D RM_IHPSG13_1P_1024x32_c2_bm_bist
*I *5297:L_LO O *D sg13g2_tielo
*CAP
1 *5217:A_BIST_BM[11] 0.000303319
2 *5297:L_LO 0.000303319
3 *245:11 0
4 *194:13 *5217:A_BIST_BM[11] 5.5154e-05
*RES
1 *5297:L_LO *5217:A_BIST_BM[11] 23.3578 
2 *5217:A_BIST_BM[11] *245:11 0.137333 
*END

*D_NET *246 0.00064598
*CONN
*I *5217:A_BIST_BM[12] I *D RM_IHPSG13_1P_1024x32_c2_bm_bist
*I *5218:L_LO O *D sg13g2_tielo
*CAP
1 *5217:A_BIST_BM[12] 0.00032299
2 *5218:L_LO 0.00032299
3 *195:13 *5217:A_BIST_BM[12] 0
*RES
1 *5218:L_LO *5217:A_BIST_BM[12] 23.7209 
*END
